%chk=speciationDFT52.chk
%nprocshared=32
%mem=64GB
#p opt=loose wb97xd/gen scf=xqc freq

speciation study

0 1
Mg 1.446919 0.402979 -0.539955
C -0.346616 2.683821 0.342531
C 0.972007 3.197621 -1.621592
O 0.915409 2.611825 -0.337156
C -1.492470 2.139847 -0.464190
C 0.890681 4.724793 -1.529406
H -0.120991 2.040602 1.239285
H -0.497171 3.721085 0.669539
H 1.967151 2.866810 -1.985376
H 0.180662 2.782649 -2.272168
H 1.591471 5.097214 -0.774629
H 1.129361 5.196034 -2.481618
H -0.112791 5.042937 -1.228698
H -1.196331 1.295818 -1.108029
H -2.237380 1.604307 0.215806
H -2.029962 2.878016 -1.043685
H -0.430792 -0.261669 -2.275341
C 1.142131 -1.741986 -2.581762
C 0.641042 -0.332602 -2.394267
C 0.593911 -2.676908 -1.487792
H 0.845947 -2.131613 -3.574578
H 2.248404 -1.762368 -2.573730
H 0.822946 -2.263552 -0.476953
H -0.510307 -2.701063 -1.540858
C 1.168706 -4.092993 -1.615871
H 1.001167 0.366569 -3.128085
H 0.927138 -4.533832 -2.584186
H 2.257512 -4.080653 -1.515138
H 0.768984 -4.746701 -0.835494
C 1.030313 0.202082 2.695721
C 0.074190 0.674225 3.607640
C -1.194038 0.320108 3.069722
C -0.948671 -0.345667 1.858579
N 0.416223 -0.434016 1.630255
C -1.910955 -0.986731 0.900116
N -3.112591 -0.177493 0.752580
C -4.087164 -0.679159 -0.115241
H 0.249110 1.185890 4.515325
H 2.092040 0.274150 2.745842
H -2.148638 0.527750 3.479697
H -1.391422 -1.139480 -0.081607
H -2.143584 -2.010268 1.286191
C -4.734141 -2.073231 0.314661
C -5.258172 0.363863 -0.154287
C -3.627582 -0.902888 -1.624577
H -5.061021 -1.981603 1.347703
H -5.570849 -2.332667 -0.318146
H -3.974881 -2.848303 0.262155
H -4.869001 1.318892 -0.509870
H -6.069655 0.034775 -0.792723
H -5.623164 0.516191 0.862736
H -3.166157 0.017403 -1.977390
H -2.879529 -1.691393 -1.659015
H -4.463624 -1.163971 -2.257720
H 3.884187 0.841598 -1.379295
C 4.247095 0.017153 0.609076
C 3.544323 0.924153 -0.362241
C 3.744617 -1.439358 0.520915
H 5.339649 0.037878 0.435824
H 4.096983 0.384751 1.642973
H 2.717006 -1.497698 0.959196
H 3.648733 -1.739122 -0.537685
C 4.672182 -2.407398 1.266599
H 3.474298 1.951231 -0.043127
H 5.674296 -2.409184 0.835427
H 4.758185 -2.121974 2.319535
H 4.281962 -3.427687 1.228766

-C 0
6-31g(d,p)
****
-Mg 0
6-31g(d,p)
****
-N 0
6-31+g(d,p)
****
-H 0
6-31g(d,p)
****
-O 0
6-31+g(d,p)
****


