%chk=speciationDFT6.chk
%nprocshared=32
%mem=64GB
#p opt=loose wb97xd/gen scf=xqc freq

speciation study

0 1
Mg 0.159604 -0.465215 -0.084877
C 0.931732 1.883284 -1.716545
C -0.101942 2.775341 0.309940
O 0.280331 1.659117 -0.469536
C 2.160945 2.759989 -1.592539
C -1.105800 3.670721 -0.391633
H 1.224242 0.833657 -2.001877
H 0.178474 2.286795 -2.414022
H -0.552852 2.284336 1.196865
H 0.815454 3.317996 0.601607
H -2.036045 3.102093 -0.656057
H -1.431101 4.492451 0.244974
H -0.721653 4.083435 -1.324884
H 2.882763 2.312475 -0.870142
H 2.710834 2.810694 -2.536566
H 1.939589 3.774483 -1.266586
C -1.752961 -2.715440 -1.902218
C -3.029580 -2.730363 -2.484885
C -3.593115 -1.442365 -2.265916
C -2.643423 -0.703736 -1.553226
N -1.516909 -1.480267 -1.337142
C -2.577365 0.719497 -1.058222
N -3.765365 1.503510 -0.916371
C -4.629866 1.256761 0.164077
H -3.491830 -3.534612 -2.993994
H -1.021993 -3.489288 -1.871105
H -4.545963 -1.098939 -2.581493
H -1.970790 0.704459 -0.084642
H -1.955410 1.278516 -1.812699
C -4.000514 1.590145 1.597390
C -5.850600 2.222632 -0.009645
C -5.202418 -0.198732 0.295851
H -3.525394 2.565657 1.534847
H -4.767601 1.604508 2.360017
H -3.255525 0.840434 1.842286
H -6.311265 2.030769 -0.981622
H -6.584033 2.089824 0.778229
H -5.494812 3.253407 -0.016788
H -5.743034 -0.442162 -0.620892
H -4.381544 -0.914264 0.367346
H -5.861231 -0.303628 1.148761
C -1.829741 -1.895497 1.566495
C -0.838359 -0.028452 2.711450
O -0.642497 -1.144076 1.833646
C -2.318045 -2.619165 2.811499
C 0.559844 0.502620 2.971471
H -2.605453 -1.236593 1.117203
H -1.466825 -2.611214 0.788038
H -1.508059 0.704520 2.211704
H -1.322539 -0.383169 3.635079
H 1.019961 0.960684 2.071159
H 0.563829 1.260318 3.757161
H 1.244840 -0.303306 3.277651
H -2.851599 -1.952492 3.494684
H -3.010187 -3.423121 2.535826
H -1.482233 -3.069215 3.358485
C 6.420273 1.428798 0.614865
C 6.248020 1.333993 -0.782086
C 4.950555 0.801534 -0.980936
C 4.408219 0.597711 0.303183
N 5.302398 0.982112 1.281182
C 3.042444 0.120181 0.706642
N 2.340179 -0.692575 -0.283787
C 2.651994 -2.098985 -0.316617
H 6.943532 1.602978 -1.530904
H 7.268074 1.786562 1.148849
H 4.479506 0.578601 -1.903971
H 2.417974 1.040693 0.865090
H 3.126600 -0.387832 1.696878
C 1.954671 -2.899970 0.848949
C 2.092561 -2.641519 -1.663565
C 4.164535 -2.403987 -0.245781
H 0.865887 -2.906387 0.728092
H 2.292597 -3.931405 0.872000
H 2.191721 -2.432485 1.805891
H 2.630885 -2.172799 -2.492840
H 2.197071 -3.720442 -1.733447
H 1.028987 -2.385737 -1.788927
H 4.698686 -1.768872 -0.969278
H 4.575567 -2.123320 0.729571
H 4.389475 -3.446248 -0.445066

-C 0
6-31g(d,p)
****
-Mg 0
6-31g(d,p)
****
-N 0
6-31+g(d,p)
****
-H 0
6-31g(d,p)
****
-O 0
6-31+g(d,p)
****


