%chk=speciationDFT5.chk
%nprocshared=32
%mem=64GB
#p opt=loose wb97xd/gen scf=xqc freq

speciation study

0 1
Mg 0.582979 0.427362 -0.053933
C 0.845278 -2.249503 0.946754
C -0.455970 -0.795222 2.369100
O 0.690029 -0.948164 1.527454
C -0.101621 -2.427465 -0.222712
C -0.096859 -1.285348 3.767169
H 1.920942 -2.206704 0.627202
H 0.721778 -3.008701 1.728662
H -0.650243 0.303758 2.339130
H -1.349827 -1.308804 1.932401
H 0.847824 -0.842918 4.103307
H -0.877834 -1.011618 4.480313
H 0.018550 -2.371552 3.793415
H -1.044465 -1.837517 -0.086759
H 0.373183 -2.116779 -1.176504
H -0.409549 -3.463131 -0.356420
C -0.996547 3.217946 -0.207936
C -2.223659 3.716513 -0.665500
C -3.220975 2.834893 -0.167419
C -2.546480 1.840177 0.567260
N -1.189123 2.077010 0.556075
C -3.177624 0.716879 1.348552
N -2.986953 -0.584223 0.730179
C -4.153745 -1.306642 0.406496
H -2.389888 4.579394 -1.254511
H -0.016456 3.615059 -0.354335
H -4.263936 2.910009 -0.323703
H -2.715358 0.696312 2.367224
H -4.245021 0.980602 1.524300
C -5.171915 -0.562221 -0.539101
C -3.707930 -2.613549 -0.325239
C -5.002828 -1.760983 1.670798
H -4.623256 -0.168014 -1.396127
H -5.961891 -1.220585 -0.878308
H -5.607342 0.288247 -0.016908
H -3.031283 -3.176608 0.321125
H -4.558856 -3.235303 -0.584096
H -3.160069 -2.350500 -1.234046
H -4.346554 -2.304809 2.346940
H -5.374118 -0.881898 2.191075
H -5.835101 -2.390278 1.383068
C -1.623629 0.254172 -1.989762
C 0.599814 0.448060 -2.938101
O -0.240553 -0.091303 -1.918020
C -2.272563 -0.440633 -3.177899
C 0.810180 1.942565 -2.772122
H -2.020427 -0.144305 -0.990109
H -1.760931 1.348572 -1.998769
H 1.539852 -0.148100 -2.762445
H 0.178301 0.184266 -3.916956
H 1.451153 2.167431 -1.887293
H 1.313163 2.378317 -3.633412
H -0.139017 2.473319 -2.613844
H -1.920385 -1.476060 -3.257448
H -3.359806 -0.470929 -3.040343
H -2.064705 0.067457 -4.120367
C 3.109834 -2.999114 -1.646079
C 3.991802 -3.174206 -0.560575
C 4.292700 -1.873226 -0.086783
C 3.571709 -0.974974 -0.903754
N 2.861800 -1.664006 -1.863092
C 3.621115 0.528039 -0.915102
N 2.676013 1.262726 -0.085952
C 3.103067 1.632073 1.235092
H 4.361452 -4.087407 -0.177144
H 2.667370 -3.746774 -2.260743
H 4.939246 -1.632808 0.715205
H 4.671253 0.833250 -0.699443
H 3.417031 0.870563 -1.963286
C 4.203182 2.754147 1.173103
C 1.873781 2.224389 1.980617
C 3.676623 0.476486 2.106075
H 3.816252 3.599959 0.603133
H 4.487013 3.086769 2.165966
H 5.089483 2.383135 0.659782
H 1.214047 1.427370 2.354431
H 2.170116 2.829615 2.832283
H 1.283736 2.860538 1.300020
H 3.029442 -0.405813 2.004378
H 4.664007 0.181235 1.750212
H 3.746964 0.750056 3.153411

-C 0
6-31g(d,p)
****
-Mg 0
6-31g(d,p)
****
-N 0
6-31+g(d,p)
****
-H 0
6-31g(d,p)
****
-O 0
6-31+g(d,p)
****


