%chk=speciationDFT39.chk
%nprocshared=32
%mem=64GB
#p opt=loose wb97xd/gen scf=xqc freq

speciation study

0 1
Mg -1.281233 0.849812 0.645190
H -2.558859 3.091035 0.333590
C -0.498373 3.750216 0.016717
C -1.561516 2.956794 0.730013
C -0.715841 3.762014 -1.507264
H -0.483479 4.793798 0.385388
H 0.510658 3.345076 0.243928
H -0.834084 2.720532 -1.870849
H -1.662377 4.273348 -1.745965
C 0.453609 4.439075 -2.228634
H -1.568936 3.120585 1.801558
H 0.565507 5.479224 -1.916634
H 1.399621 3.926936 -1.995778
H 0.322948 4.421104 -3.311612
C 4.760259 1.563535 -0.287438
C 3.796994 1.614371 -1.301852
C 2.524609 1.593810 -0.655495
C 2.821313 1.520478 0.743952
N 4.166889 1.507051 0.964814
C 1.797763 1.393440 1.835112
N 0.997792 0.184066 1.619279
C 1.096287 -0.849997 2.616455
H 3.967422 1.670331 -2.346415
H 5.821247 1.556281 -0.379432
H 1.589243 1.874077 -1.096985
H 1.103588 2.270313 1.801274
H 2.291199 1.431120 2.827633
C 0.415345 -0.414235 3.950728
C 0.360165 -2.096228 2.054517
C 2.564228 -1.266398 2.940171
H -0.615108 -0.097599 3.748665
H 0.399427 -1.219833 4.678591
H 0.936960 0.438039 4.386722
H 1.038238 -2.736097 1.480378
H -0.084238 -2.698612 2.842367
H -0.455816 -1.787020 1.367149
H 3.116587 -1.459088 2.011476
H 3.098330 -0.457275 3.443031
H 2.603805 -2.152055 3.566277
Mg 1.646670 -0.680411 -0.444531
H 2.419499 -2.000508 -2.566438
C 2.639061 -3.509057 -1.002097
C 2.759826 -2.107732 -1.546371
C 1.476523 -4.298891 -1.641319
H 3.580359 -4.064062 -1.190138
H 2.522598 -3.501778 0.098546
H 1.488435 -4.142791 -2.734672
H 1.633062 -5.379661 -1.487300
C 0.123919 -3.882087 -1.073995
H 3.760937 -1.698630 -1.449633
H 0.046634 -4.091333 -0.004175
H -0.047483 -2.785661 -1.198605
H -0.703833 -4.381214 -1.579265
C -5.040785 0.241260 1.463848
C -4.022541 0.295839 2.424077
C -2.936668 -0.468859 1.905828
C -3.380368 -0.932133 0.628284
N -4.654012 -0.512604 0.368249
C -2.564553 -1.735292 -0.348667
N -1.462340 -0.963875 -0.924600
C -1.679475 -0.441451 -2.244856
H -4.044875 0.796229 3.357732
H -6.004341 0.693881 1.492558
H -2.091040 -0.811776 2.466337
H -3.239347 -2.177214 -1.112027
H -2.105401 -2.597988 0.191728
C -2.805225 0.630646 -2.331446
C -0.334575 0.207563 -2.691139
C -2.020858 -1.549940 -3.301080
H -2.562613 1.510729 -1.724518
H -2.998295 0.950337 -3.348944
H -3.733345 0.220248 -1.907161
H 0.431705 -0.568777 -2.822038
H -0.442829 0.730654 -3.638950
H 0.003674 0.940479 -1.940871
H -1.324087 -2.383691 -3.193557
H -3.029040 -1.932134 -3.138834
H -1.960527 -1.165275 -4.314532

-H 0
6-31g(d,p)
****
-C 0
6-31g(d,p)
****
-Mg 0
6-31g(d,p)
****
-N 0
6-31+g(d,p)
****


