%chk=speciationDFT11.chk
%nprocshared=32
%mem=64GB
#p opt=loose wb97xd/gen scf=xqc freq

speciation study

0 1
Mg 1.443291 -0.105984 -0.650434
H -0.244397 -0.395146 2.775319
C 1.028107 1.222575 2.093149
C 0.331146 -0.100648 1.891745
C 0.091707 2.428628 1.906995
H 1.463926 1.262528 3.111895
H 1.920420 1.342892 1.433679
H -0.349080 2.424536 0.885380
H -0.762091 2.355993 2.604869
C 0.843162 3.744662 2.127708
H 1.003809 -0.933059 1.691328
H 1.216515 3.826337 3.150362
H 1.712437 3.808281 1.457268
H 0.204278 4.607607 1.929437
C -4.189226 2.368832 -0.571221
C -3.279719 2.638131 0.456832
C -3.216612 1.459597 1.260757
C -4.119383 0.536625 0.639943
N -4.704929 1.085304 -0.461711
C -4.347744 -0.880262 1.093636
N -3.142598 -1.688940 0.907697
C -3.186693 -2.648941 -0.157974
H -2.751477 3.540772 0.633728
H -4.496351 3.002914 -1.371024
H -2.825902 1.400720 2.255378
H -4.567118 -0.877946 2.188028
H -5.248093 -1.296230 0.596438
C -3.555704 -2.063454 -1.554115
C -1.775804 -3.300115 -0.245218
C -4.213226 -3.800081 0.139830
H -2.911091 -1.209255 -1.794072
H -3.477212 -2.804437 -2.342211
H -4.574091 -1.663112 -1.538891
H -1.444458 -3.584734 0.759511
H -1.787586 -4.186604 -0.874959
H -1.037392 -2.601216 -0.657577
H -3.990906 -4.230912 1.116803
H -5.226105 -3.399675 0.175828
H -4.170417 -4.577988 -0.615904
Mg -1.450786 -0.113680 0.666606
H 0.235014 -0.373433 -2.758321
C -1.027938 1.249705 -2.071846
C -0.338788 -0.078056 -1.873614
C -0.072659 2.447800 -1.939646
H -1.499469 1.277881 -3.075185
H -1.894256 1.391468 -1.383198
H 0.418035 2.446936 -0.941080
H 0.745044 2.362287 -2.677546
C -0.822744 3.769119 -2.132303
H -1.018721 -0.906447 -1.679386
H -1.245486 3.847105 -3.135920
H -1.657817 3.844532 -1.420900
H -0.167725 4.627637 -1.971656
C 4.210756 2.345524 0.588275
C 3.291630 2.632201 -0.426165
C 3.211681 1.463463 -1.242911
C 4.116085 0.527992 -0.643282
N 4.717846 1.060285 0.457384
C 4.329625 -0.885196 -1.115452
N 3.124379 -1.690542 -0.916420
C 3.178285 -2.652533 0.147080
H 2.767309 3.540232 -0.587071
H 4.531320 2.968169 1.391715
H 2.810800 1.419491 -2.234277
H 4.529631 -0.873144 -2.213376
H 5.236708 -1.310405 -0.638410
C 3.554271 -2.067904 1.541654
C 1.769933 -3.307904 0.241786
C 4.205956 -3.800581 -0.158300
H 2.895093 -1.229909 1.797333
H 3.503941 -2.815319 2.325845
H 4.563715 -1.645035 1.513326
H 1.440287 -3.606527 -0.759245
H 1.784606 -4.185631 0.883567
H 1.028385 -2.605944 0.643269
H 3.985154 -4.224013 -1.138856
H 5.218834 -3.399663 -0.189332
H 4.162416 -4.584400 0.591303

-H 0
6-31g(d,p)
****
-C 0
6-31g(d,p)
****
-Mg 0
6-31g(d,p)
****
-N 0
6-31+g(d,p)
****


