%chk=speciationDFT8.chk
%nprocshared=32
%mem=64GB
#p opt=loose wb97xd/gen scf=xqc freq

speciation study

0 1
Mg -0.628711 -0.206892 -0.151748
H -1.181741 0.371683 -2.605080
C -3.160514 0.533721 -1.687983
C -1.853023 -0.158923 -1.947324
C -2.956312 1.875423 -0.952601
H -3.698543 0.720149 -2.637595
H -3.827511 -0.113306 -1.087373
H -2.608718 1.682106 0.083923
H -2.137887 2.438409 -1.440157
C -4.244590 2.710139 -0.921839
H -1.930669 -1.196691 -2.215346
H -4.575868 2.955711 -1.933062
H -5.051628 2.159252 -0.432065
H -4.095045 3.645663 -0.378784
C 3.528060 -2.627910 -0.682307
C 4.696701 -1.870974 -0.461900
C 4.321406 -0.516139 -0.637260
C 2.940118 -0.525283 -0.948854
N 2.461295 -1.811629 -0.987777
C 2.092822 0.671528 -1.291665
N 1.180009 1.228497 -0.302451
C 1.704036 1.624302 0.965537
H 5.657760 -2.233846 -0.215444
H 3.413558 -3.684085 -0.639223
H 4.948862 0.329227 -0.547308
H 2.779906 1.471988 -1.662383
H 1.437891 0.397984 -2.160304
C 2.963323 2.556059 0.854833
C 0.572529 2.457824 1.667752
C 2.087067 0.455966 1.924647
H 2.753908 3.370971 0.164631
H 3.248642 2.957480 1.820435
H 3.796997 1.973607 0.451431
H -0.311517 1.827721 1.813214
H 0.901107 2.835199 2.629814
H 0.286174 3.289123 1.023255
H 1.236535 -0.221625 2.050035
H 2.883138 -0.142880 1.456665
H 2.422387 0.805174 2.892394
H -0.712036 -1.876271 1.847626
C -2.815828 -1.289502 1.689650
C -1.340080 -1.007158 1.736350
C -3.140562 -2.408566 0.679913
H -3.192187 -1.583896 2.688719
H -3.374555 -0.373843 1.416088
H -2.766666 -2.102817 -0.323762
H -2.584488 -3.321723 0.947084
C -4.646272 -2.696345 0.616409
H -1.062419 -0.230062 2.428535
H -5.031517 -3.000632 1.591422
H -5.193901 -1.800882 0.305420
H -4.867837 -3.489236 -0.100385

-H 0
6-31g(d,p)
****
-C 0
6-31g(d,p)
****
-Mg 0
6-31g(d,p)
****
-N 0
6-31+g(d,p)
****


