%chk=speciation261.chk
%nprocshared=16
%mem=32GB
#p opt=loose PM7 scf=xqc 

 speciation study

0 1
Na         1.03926       -0.17973        0.18302
Mg        -3.03983        3.84215       -2.69897
C          1.05482        2.24827        2.33161
C          1.13520        0.16223        3.30789
O          0.76174        0.86302        2.13379
C          2.53834        2.62623        2.36559
C          1.07682       -1.30571        3.05160
H          0.64541        2.82013        1.51363
H          0.52735        2.64018        3.23202
H          2.18111        0.35814        3.62531
H          0.42294        0.39174        4.12881
H          1.85617       -1.49524        2.30330
H          1.31577       -1.87804        3.97144
H          0.06691       -1.57825        2.68395
H          3.04865        2.23718        1.47077
H          2.62240        3.73536        2.37527
H          3.05585        2.26106        3.27161
C          0.15408        0.20550       -2.78757
C         -0.42137        0.92038       -3.82046
C         -0.89779        2.08171       -3.27111
C         -0.60020        2.02555       -1.92410
N          0.04543        0.86467       -1.61070
C         -0.89532        3.13746       -0.97307
N         -2.32047        3.50299       -0.92214
C         -2.63266        4.68210       -0.06133
H         -0.47337        0.63617       -4.86272
H          0.63956       -0.75408       -2.89849
H         -1.39170        2.88748       -3.79967
H         -0.60394        2.77865       -0.00078
H         -0.27666        3.99321       -1.30484
C         -1.91808        5.96029       -0.56518
C         -4.14735        4.93085       -0.13389
C         -2.24897        4.43133        1.41172
H         -2.16808        6.16208       -1.62647
H         -2.22512        6.84462        0.04159
H         -0.81297        5.89704       -0.46212
H         -4.70529        4.05575        0.25338
H         -4.42642        5.82036        0.47877
H         -4.46047        5.12294       -1.18006
H         -2.74161        3.51347        1.79304
H         -1.15220        4.32955        1.53810
H         -2.56180        5.28871        2.05013
Na         6.41280        2.97069       -1.54571
C         -0.82307       -2.61563       -0.75201
C          0.80790       -3.44741        0.77764
O          0.33938       -2.32108        0.02223
C         -2.05223       -3.05789        0.05638
C          1.08109       -4.72444       -0.02661
H         -1.11005       -1.70506       -1.30740
H         -0.58513       -3.36323       -1.54062
H          1.80387       -3.20874        1.17451
H          0.13766       -3.66399        1.63704
H          1.78956       -4.51025       -0.85284
H          1.54196       -5.48069        0.64757
H          0.14985       -5.17337       -0.42664
H         -2.35782       -2.26183        0.76433
H         -2.89451       -3.25439       -0.64358
H         -1.87078       -4.00157        0.61153
C          4.04381       -1.08237        0.47895
C          5.36282       -0.79690        0.21383
C          5.37000        0.35056       -0.53789
C          4.04579        0.72487       -0.69136
N          3.22840       -0.16600       -0.08391
C          3.55415        1.95306       -1.40865
N          4.53215        2.41916       -2.40585
C          4.12248        3.59072       -3.21671
H          6.22951       -1.35433        0.54097
H          3.70995       -1.92399        1.06139
H          6.24984        0.85530       -0.89954
H          2.61310        1.67310       -1.90942
H          3.35402        2.74187       -0.66349
C          3.97255        4.84321       -2.33495
C          5.24742        3.84623       -4.23892
C          2.81617        3.32775       -3.99542
H          4.91227        5.03929       -1.77321
H          3.74864        5.73642       -2.96067
H          3.14245        4.73611       -1.61092
H          5.38792        2.96375       -4.90122
H          5.01127        4.72750       -4.87969
H          6.21174        4.04891       -3.72563
H          2.90848        2.40977       -4.61389
H          1.94959        3.21818       -3.31426
H          2.58688        4.18343       -4.66900

