%chk=speciation174.chk
%nprocshared=16
%mem=32GB
#p opt=loose PM7 scf=xqc 

 speciation study

0 1
Na         4.93895       -2.23241        0.93082
Mg         2.64323        3.19150        3.48241
H          3.68642        3.42343        0.94494
C          3.60530        5.43820        1.51077
C          2.98913        4.04676        1.51380
C          4.90229        5.45776        2.33592
H          3.82133        5.75182        0.46568
H          2.85844        6.14464        1.91320
H          4.69961        5.09139        3.36487
H          5.65841        4.78252        1.87917
C          5.47836        6.86984        2.42384
H          2.04729        4.05078        0.92948
H          5.74744        7.24155        1.41334
H          4.74049        7.56493        2.87817
H          6.38864        6.86397        3.06005
C          2.50897        0.45169        4.55130
C          2.94382       -0.85817        4.51867
C          3.80413       -0.95723        3.45378
C          3.86472        0.29785        2.87513
N          3.06561        1.17495        3.55641
C          4.75066        0.64478        1.71451
N          4.48715       -0.17889        0.51329
C          5.26698        0.19701       -0.70020
H          2.67843       -1.64899        5.20819
H          1.83217        0.86032        5.28997
H          4.34695       -1.84491        3.15609
H          5.79528        0.49600        2.05054
H          4.60622        1.69761        1.50242
C          6.79059        0.17430       -0.44119
C          4.95773       -0.82831       -1.80790
C          4.85584        1.59113       -1.21837
H          7.11423       -0.82759       -0.08814
H          7.34510        0.41079       -1.37642
H          7.09142        0.93615        0.30611
H          3.87110       -0.84765       -2.03736
H          5.50309       -0.57249       -2.74490
H          5.27073       -1.84928       -1.50284
H          3.76427        1.62559       -1.42322
H          5.11813        2.38908       -0.49979
H          5.39651        1.83149       -2.15984
Mg         2.59983       -0.08079        0.02247
C          2.88371        4.72957        9.60171
C          1.87949        3.79301        9.48408
C          1.83667        3.39525        8.15694
C          2.77205        4.07302        7.49317
N          3.48499        4.93855        8.35103
C          3.07159        3.94722        6.02462
N          1.92119        4.20496        5.13791
C          1.35173        5.59729        5.12772
H          1.24882        3.44264       10.29006
H          3.17168        5.23637       10.51336
H          1.15672        2.67033        7.73052
H          3.39293        2.90086        5.85561
H          3.92926        4.58765        5.74320
C          2.42892        6.66357        4.89079
C          0.29404        5.67328        4.01611
C          0.62049        5.94957        6.45365
H          2.99605        6.42375        3.99483
H          1.97575        7.66958        4.75629
H          3.14291        6.72566        5.73734
H         -0.51816        4.93577        4.19712
H         -0.17174        6.68551        3.99094
H          0.74017        5.47569        3.02164
H         -0.15642        5.19569        6.69776
H          1.30947        6.05617        7.30932
H          0.12768        6.94426        6.37143

