%chk=speciation849.chk
%nprocshared=16
%mem=32GB
#p opt=loose PM7 scf=xqc 

 speciation study

0 1
Na        -4.35179       -3.57148       -0.69079
Mg        -0.53000       -3.12885        3.59582
H         -1.69520       -3.86182        5.90621
C         -3.08371       -4.77748        4.49819
C         -2.10496       -3.66547        4.89490
C         -2.41582       -6.15318        4.44623
H         -3.90202       -4.80520        5.25269
H         -3.53086       -4.54006        3.50792
H         -1.61590       -6.14803        3.67570
H         -1.96539       -6.38608        5.43574
C         -3.43461       -7.24487        4.11009
H         -2.68278       -2.71821        4.93779
H         -4.22828       -7.28960        4.88796
H         -3.90816       -7.04940        3.12426
H         -2.92826       -8.23264        4.07121
C         -3.76143       -0.53064       -1.13642
C         -3.20112        0.65413       -0.70268
C         -2.61474        0.38482        0.50405
C         -2.83762       -0.95360        0.76124
N         -3.55218       -1.52336       -0.24467
C         -2.30096       -1.64591        1.99039
N         -1.31609       -2.71749        1.73646
C         -0.07885       -2.39322        0.98912
H         -3.20905        1.60896       -1.21017
H         -4.30934       -0.64974       -2.06429
H         -2.06451        1.07911        1.12467
H         -1.84120       -0.89899        2.66787
H         -3.16457       -2.08024        2.53466
C          0.71575       -1.30451        1.73475
C          0.72268       -3.70311        0.92388
C         -0.32216       -1.95102       -0.47418
H          0.80110       -1.55484        2.80167
H          1.72588       -1.16219        1.29842
H          0.18287       -0.33238        1.70161
H          0.16042       -4.46567        0.34008
H          1.70718       -3.54553        0.43339
H          0.89378       -4.12044        1.93048
H         -1.09941       -2.58243       -0.95323
H         -0.60970       -0.88588       -0.54565
H          0.60838       -2.03755       -1.07562
Na        -5.99751       -7.83059       -5.07772
Mg        -2.21758       -4.14240        0.74988
H          1.82386       -4.47617        4.03023
C          2.09785       -3.36514        5.83064
C          1.58536       -3.45127        4.38138
C          1.93516       -2.00392        6.52648
H          1.59798       -4.14323        6.44143
H          3.18982       -3.59360        5.82071
H          2.38176       -2.09879        7.54223
H          2.48581       -1.19735        5.99264
C          0.47316       -1.61246        6.69108
H          2.23741       -2.77045        3.79408
H          0.03007       -1.36678        5.70429
H         -0.09089       -2.44561        7.15991
H          0.39858       -0.72357        7.35350
C         -6.08568       -6.24014       -0.38126
C         -6.45655       -7.44389       -0.95282
C         -5.81683       -7.51426       -2.16330
C         -5.08750       -6.34506       -2.28509
N         -5.23227       -5.56740       -1.18569
C         -4.24057       -5.99275       -3.46488
N         -5.07308       -5.94022       -4.68458
C         -4.36817       -5.55873       -5.93012
H         -7.12108       -8.19046       -0.53414
H         -6.42154       -5.88512        0.58188
H         -5.88360       -8.32884       -2.87317
H         -3.77075       -5.01080       -3.25861
H         -3.45823       -6.77483       -3.55509
C         -3.21926       -6.54152       -6.25938
C         -5.39208       -5.62069       -7.07311
C         -3.82574       -4.11825       -5.84771
H         -3.60166       -7.58416       -6.32064
H         -2.75228       -6.28164       -7.23359
H         -2.41500       -6.50175       -5.49580
H         -6.24525       -4.93087       -6.87419
H         -4.93144       -5.33251       -8.04275
H         -5.80479       -6.64784       -7.18345
H         -4.65285       -3.41478       -5.60491
H         -3.03939       -4.01983       -5.07247
H         -3.37360       -3.81406       -6.81360

