%chk=speciation176.chk
%nprocshared=16
%mem=32GB
#p opt=loose PM7 scf=xqc 

 speciation study

0 1
Na         6.23597        0.88970       -1.37707
Mg         4.23038        4.60520        1.35330
H          5.37739        3.58081       -0.87441
C          5.23643        5.61245       -1.61819
C          4.70439        4.45557       -0.75785
C          6.60741        6.11782       -1.17108
H          5.30982        5.26532       -2.67426
H          4.51166        6.45042       -1.58810
H          6.54155        6.46649       -0.12774
H          7.35572        5.29861       -1.23065
C          7.06983        7.28781       -2.04178
H          3.71558        4.18004       -1.18170
H          7.18250        6.96812       -3.10000
H          6.33574        8.12163       -1.99377
H          8.04938        7.66325       -1.67793
C          2.74583        2.91382        3.29347
C          2.18038        1.68220        3.54721
C          2.49621        0.88272        2.47838
C          3.26688        1.65877        1.63467
N          3.37376        2.92432        2.09797
C          3.94131        1.14985        0.41488
N          5.40448        1.27095        0.55279
C          6.12027        0.46197        1.58364
H          1.61726        1.39398        4.42500
H          2.69383        3.75782        3.96266
H          2.23895       -0.16092        2.35302
H          3.60350        1.75920       -0.44891
H          3.65770        0.09822        0.20092
C          5.82148       -1.04863        1.46434
C          7.62026        0.68875        1.35014
C          5.82120        0.92508        3.03032
H          6.08615       -1.42922        0.45628
H          6.41329       -1.61616        2.21725
H          4.75154       -1.26860        1.66465
H          7.86011        1.77070        1.44139
H          8.22758        0.13076        2.09646
H          7.91367        0.34626        0.33669
H          5.96420        2.02134        3.13272
H          4.81169        0.65116        3.36800
H          6.49223        0.41327        3.75177
Mg         3.90102        5.75337        4.17984
C          7.99898        5.19086        2.83164
C          8.56612        6.44469        2.72452
C          7.53835        7.34089        2.51373
C          6.38801        6.66368        2.49061
N          6.60067        5.27992        2.69051
C          5.05553        7.30905        2.25160
N          3.95181        6.33588        2.31852
C          2.60754        6.90053        2.02065
H          9.62195        6.67231        2.78604
H          8.54250        4.27108        2.99116
H          7.64257        8.41119        2.37729
H          5.11370        7.78772        1.25583
H          4.92121        8.08494        3.03307
C          2.53172        7.51344        0.60596
C          1.57926        5.76111        2.07906
C          2.20284        7.95611        3.07244
H          2.79631        6.75366       -0.15356
H          1.49945        7.86668        0.39338
H          3.19231        8.39590        0.49421
H          1.53260        5.33605        3.09589
H          0.55971        6.13066        1.84026
H          1.83458        4.96567        1.34673
H          2.25044        7.51961        4.09378
H          2.85733        8.84933        3.03595
H          1.16370        8.30642        2.89226

