%chk=speciation155.chk
%nprocshared=16
%mem=32GB
#p opt=loose PM7 scf=xqc 

 speciation study

0 1
Na         2.80064       -1.47187       -3.88740
Mg         4.77169        2.92920       -0.21728
H          6.66433        4.16847        1.01362
C          6.51991        2.44486        2.32515
C          5.87697        3.48890        1.40343
C          7.64334        1.62591        1.66674
H          6.97761        2.99931        3.17214
H          5.74066        1.76839        2.73426
H          8.42085        2.30898        1.25898
H          8.11826        1.00038        2.45436
C          7.15399        0.68764        0.56815
H          5.15921        4.09248        1.99812
H          6.41369       -0.03109        0.97947
H          6.69840        1.25688       -0.26714
H          8.01861        0.10850        0.17495
C          3.47895        3.21558       -2.83391
C          2.69661        2.60439       -3.79191
C          2.42640        1.33831       -3.32633
C          3.06013        1.22341       -2.10226
N          3.69351        2.38322       -1.79827
C          3.00559        0.00306       -1.22149
N          3.56200       -1.18384       -1.90612
C          3.45682       -2.47313       -1.17268
H          2.35894        3.03673       -4.72322
H          3.86352        4.22705       -2.88677
H          1.82502        0.59157       -3.82580
H          1.94011       -0.15082       -0.97265
H          3.57614        0.21190       -0.29048
C          1.99457       -2.82349       -0.80632
C          3.98426       -3.59247       -2.09327
C          4.32621       -2.45304        0.10086
H          1.35759       -2.84435       -1.71662
H          1.94299       -3.82567       -0.32605
H          1.56289       -2.10615       -0.08058
H          5.03659       -3.39839       -2.39032
H          3.94497       -4.57956       -1.57943
H          3.36798       -3.66903       -3.01492
H          5.38357       -2.23388       -0.16099
H          3.97119       -1.69307        0.82528
H          4.29164       -3.43951        0.61282

