%chk=speciation890.chk
%nprocshared=16
%mem=32GB
#p opt=loose PM7 scf=xqc 

 speciation study

0 1
Na         1.24882        1.69106       -0.19795
Mg         3.09910       -0.37635       -1.51674
H          4.50464       -1.92821       -3.24824
C          2.80260       -3.22470       -2.94029
C          3.82807       -2.20447       -2.41370
C          1.96837       -2.63894       -4.08838
H          3.34332       -4.12458       -3.31093
H          2.13413       -3.55210       -2.12000
H          1.43074       -1.73726       -3.72665
H          2.64323       -2.34866       -4.92244
C          0.94847       -3.64864       -4.61156
H          4.44390       -2.69670       -1.62942
H          1.45853       -4.55282       -5.00768
H          0.24930       -3.95057       -3.80279
H          0.35918       -3.18943       -5.43350
C         -1.62742        0.45668       -1.23007
C         -2.21104       -0.79651       -1.24478
C         -1.27871       -1.66941       -0.73755
C         -0.17250       -0.90610       -0.44222
N         -0.38005        0.38771       -0.72221
C          1.09193       -1.40412        0.14237
N          2.05420       -0.29200        0.23718
C          2.87121       -0.29720        1.47997
H         -3.20897       -1.04767       -1.57841
H         -2.10428        1.36291       -1.55309
H         -1.39291       -2.73708       -0.59039
H          1.52573       -2.18929       -0.49725
H          0.82948       -1.87026        1.10091
C          3.78856       -1.53198        1.50555
C          3.71210        0.98360        1.48194
C          2.02286       -0.25933        2.79221
H          4.40568       -1.57053        0.58466
H          4.46313       -1.50129        2.38785
H          3.18842       -2.46544        1.56998
H          3.03967        1.86674        1.51937
H          4.37209        1.02869        2.37450
H          4.33529        1.04905        0.57076
H          1.34139        0.61696        2.80292
H          1.41669       -1.16417        2.96177
H          2.68371       -0.20348        3.67207
Na        -0.17572        7.64738       -1.46551
Mg         0.10878        4.74158       -3.10385
H          3.54069        2.18228       -2.05335
C          4.66384        1.51197       -3.76018
C          4.21275        1.33576       -2.30155
C          3.48935        1.46499       -4.74384
H          5.17034        2.50310       -3.85705
H          5.40026        0.72266       -4.01727
H          2.99629        0.47338       -4.66586
H          2.75395        2.25920       -4.50152
C          3.96515        1.66734       -6.18766
H          5.11859        1.42542       -1.66526
H          4.41925        2.67465       -6.31526
H          4.71554        0.89695       -6.46613
H          3.10201        1.58394       -6.88211
C          3.30189        4.19901       -0.10572
C          3.36239        5.57957       -0.09614
C          2.06712        6.02940       -0.19159
C          1.27221        4.90049       -0.25566
N          2.01857        3.77901       -0.20298
C         -0.21550        4.88767       -0.32208
N         -0.70274        5.57216       -1.53265
C         -2.17058        5.51868       -1.72723
H          4.24946        6.19322       -0.01103
H          4.15718        3.54296       -0.02902
H          1.74541        7.06182       -0.19539
H         -0.52120        3.82489       -0.31756
H         -0.58813        5.39543        0.58905
C         -2.91791        6.18883       -0.55513
C         -2.50826        6.28834       -3.01520
C         -2.65452        4.06700       -1.90661
H         -2.56401        7.23305       -0.41910
H         -4.01180        6.20553       -0.75024
H         -2.76944        5.63678        0.39626
H         -2.00042        5.83355       -3.89192
H         -3.60453        6.26869       -3.20303
H         -2.19352        7.34947       -2.93634
H         -2.08489        3.57202       -2.72258
H         -2.53332        3.48767       -0.96879
H         -3.73439        4.03560       -2.15548

