%chk=speciation258.chk
%nprocshared=16
%mem=32GB
#p opt=loose PM7 scf=xqc 

 speciation study

0 1
Na         1.34108        1.76352        0.25860
C          0.08145        3.27034        2.65162
C          2.44738        3.56623        2.65073
O          1.33783        2.80372        2.17439
C         -0.21486        4.74982        2.37692
C          2.67937        3.43596        4.16280
H         -0.70528        2.67308        2.14923
H         -0.03520        3.03985        3.73421
H          3.36679        3.19366        2.18743
H          2.38860        4.62567        2.33322
H          2.84879        2.37525        4.44221
H          3.58153        4.02042        4.44404
H          1.82783        3.83978        4.74604
H         -0.11897        4.96264        1.29374
H         -1.24747        4.98685        2.70820
H          0.46070        5.41712        2.95276
C         -1.73484        0.88571       -0.03316
C         -2.32706       -0.34802       -0.20446
C         -1.30800       -1.27963       -0.21466
C         -0.13358       -0.57236       -0.05489
N         -0.39832        0.74349        0.05112
C          1.25662       -1.17880        0.01266
N          2.32376       -0.14827        0.09562
C          3.38168       -0.35046        1.10054
H         -3.38544       -0.54185       -0.30886
H         -2.25556        1.83189        0.02047
H         -1.41489       -2.34942       -0.32851
H          1.43038       -1.77660       -0.90798
H          1.26982       -1.87908        0.86834
C          4.10609       -1.70190        0.93322
C          4.41702        0.75870        0.88218
C          2.78111       -0.25324        2.51745
H          4.56278       -1.77987       -0.07654
H          4.91696       -1.79042        1.68992
H          3.42179       -2.56170        1.07540
H          3.92031        1.73598        0.85334
H          5.19402        0.75396        1.67547
H          4.91668        0.63942       -0.10277
H          2.19248        0.66783        2.62767
H          2.09915       -1.09972        2.73512
H          3.57721       -0.25838        3.28973
Na         3.20382       -0.23040       -1.85869
C          3.07338        3.01712       -1.84465
C          0.86175        3.76869       -2.06682
O          1.71443        2.77893       -1.52980
C          3.65601        4.27010       -1.20273
C         -0.57605        3.41114       -1.76572
H          3.64350        2.14355       -1.48217
H          3.22718        3.01603       -2.95067
H          1.04835        4.77357       -1.62622
H          0.96421        3.79795       -3.17615
H         -0.72725        3.41352       -0.67229
H         -1.26106        4.15847       -2.22320
H         -0.81115        2.41106       -2.19386
H          3.46734        4.25833       -0.11053
H          4.75286        4.30064       -1.38336
H          3.22113        5.18701       -1.64839

