%chk=speciation4.chk
%nprocshared=16
%mem=32GB
#p opt=loose PM7 scf=xqc 

 speciation study

0 1
Na         1.07302       -0.06706       -0.01308
C         -1.81818       -0.37895       -1.26776
C         -1.81712        1.12752        0.48258
O         -1.24698       -0.06706       -0.01308
C         -1.20380       -1.65844       -1.81482
C         -1.19986        1.47891        1.82764
H         -2.90869       -0.57406       -1.14489
H         -1.65810        0.43926       -2.00599
H         -1.65843        1.97898       -0.21739
H         -2.90722        0.97703        0.65960
H         -0.11872        1.69610        1.70750
H         -1.70313        2.37930        2.24148
H         -1.33029        0.63825        2.54176
H         -1.33691       -2.48896       -1.08937
H         -1.70791       -1.93301       -2.76656
H         -0.12161       -1.51055       -2.01146
C          5.70291       -1.32342       -3.27232
C          6.06177       -0.12060       -3.85157
C          5.49569        0.87935       -3.08171
C          4.81833        0.24335       -2.06241
N          4.94782       -1.08859       -2.18866
C          4.03834        0.91909       -0.94902
N          3.44302       -0.06706       -0.01308
C          3.87877       -0.01319        1.39987
H          6.66945        0.01095       -4.73469
H          5.97566       -2.30975       -3.61912
H          5.57427        1.94595       -3.24479
H          3.21833        1.51650       -1.39979
H          4.71989        1.62618       -0.43788
C          3.50023        1.33347        2.05286
C          3.12963       -1.13719        2.14639
C          5.39248       -0.27676        1.52170
H          2.40331        1.51007        1.96650
H          3.77071        1.33065        3.12962
H          4.02558        2.18563        1.58095
H          3.36987       -2.12888        1.70629
H          3.41334       -1.15518        3.22048
H          2.03176       -0.98697        2.07899
H          5.65440       -1.25522        1.06216
H          5.99284        0.50948        1.02207
H          5.69693       -0.30293        2.58981
Na         3.94798       -1.96039       -0.70736

