%chk=speciation366.chk
%nprocshared=16
%mem=32GB
#p opt=loose PM7 scf=xqc 

 speciation study

0 1
Na         5.30799       -0.02206        2.77226
Mg         1.65741       -0.34688       -2.22310
C          6.85705        1.48683        4.99609
C          4.60619        1.20431        5.63498
O          5.52006        1.25687        4.54998
C          7.47881        0.27784        5.70190
C          3.15557        1.26175        5.16600
H          7.46974        1.71982        4.10531
H          6.94238        2.39878        5.64567
H          4.75368        0.26721        6.21734
H          4.74015        2.08182        6.31849
H          2.91789        0.38595        4.53004
H          2.48154        1.24002        6.05246
H          2.94982        2.19671        4.60569
H          7.29263       -0.63578        5.10656
H          8.57426        0.42920        5.80002
H          7.06641        0.14833        6.72891
H          2.09862        2.43165       -1.49265
C          0.59359        2.45364        0.00699
C          1.12981        1.90211       -1.35544
C         -0.80833        1.96734        0.39699
H          1.30050        2.20652        0.82655
H          0.53462        3.57255       -0.02839
H         -1.08714        2.41944        1.37891
H         -1.56747        2.29711       -0.34707
C         -0.83331        0.45547        0.53619
H          0.45427        2.35456       -2.11239
H         -0.63598       -0.01181       -0.45023
H         -0.05494        0.13603        1.26144
H         -1.82779        0.12881        0.90164
C          2.18975       -3.36783       -1.72377
C          2.78992       -4.29393       -0.88005
C          3.30109       -3.59098        0.17843
C          3.04878       -2.25528       -0.10521
N          2.32104       -2.10335       -1.24230
C          3.64233       -1.13416        0.66851
N          5.09710       -1.33895        0.88971
C          5.99398       -1.52872       -0.30780
H          2.91936       -5.36571       -1.04322
H          1.73298       -3.62782       -2.66288
H          3.89989       -3.98987        0.99392
H          3.14013       -1.10385        1.66440
H          3.44372       -0.16665        0.16227
C          5.97122       -0.31958       -1.24809
C          7.40413       -1.77317        0.20552
C          5.69649       -2.78202       -1.20893
H          6.25819        0.59761       -0.70411
H          6.68591       -0.48754       -2.08258
H          4.96301       -0.19365       -1.70088
H          7.40088       -2.65473        0.89457
H          8.09352       -2.00667       -0.63233
H          7.77591       -0.88481        0.74505
H          5.72114       -3.73580       -0.63147
H          4.77225       -2.68774       -1.80137
H          6.45417       -2.90341       -2.00786
Mg         2.44132        1.21707       -4.86552
C          3.04347       -1.58153       -8.53814
C          3.60798       -0.37238       -8.20148
C          3.53778       -0.25130       -6.82495
C          2.93329       -1.33384       -6.33224
N          2.62072       -2.24504       -7.37153
C          2.56362       -1.54408       -4.87315
N          1.65728       -0.47731       -4.33984
C          0.27720       -0.43808       -4.92142
H          4.00312        0.35847       -8.89800
H          2.92368       -1.95638       -9.55104
H          3.87251        0.59991       -6.25313
H          3.50340       -1.54887       -4.28650
H          2.12279       -2.55348       -4.74453
C         -0.45196       -1.79076       -4.81412
C         -0.53204        0.61157       -4.14425
C          0.27252       -0.00574       -6.41184
H         -0.52605       -2.11599       -3.75681
H         -1.47480       -1.70629       -5.24204
H          0.06212       -2.57327       -5.40847
H         -0.05583        1.61161       -4.22270
H         -1.56391        0.69366       -4.55095
H         -0.61029        0.32666       -3.07412
H          0.83687        0.93884       -6.56575
H          0.67149       -0.78579       -7.07518
H         -0.76332        0.13467       -6.78163

