%chk=speciation344.chk
%nprocshared=16
%mem=32GB
#p opt=loose PM7 scf=xqc 

 speciation study

0 1
Na         0.95553        0.02933        0.05888
Mg         3.96740        2.36217       -2.90686
C         -1.81876        1.43591        0.10551
C         -1.94873       -0.66495        1.16349
O         -1.36262        0.09436        0.12480
C         -1.43989        2.25179        1.34761
C         -1.38483       -2.07684        1.13926
H         -1.33844        1.92081       -0.77077
H         -2.91405        1.47986       -0.08334
H         -1.72370       -0.24813        2.16644
H         -3.04888       -0.73375        1.00851
H         -0.29015       -2.04964        1.32674
H         -1.86731       -2.68358        1.93525
H         -1.57720       -2.55270        0.15506
H         -0.34774        2.18466        1.53497
H         -1.71469        3.31538        1.18389
H         -1.99291        1.90947        2.24486
H          4.45541        2.14965       -5.47312
C          5.64870        0.60739       -4.53154
C          5.09499        2.02511       -4.57315
C          4.50014       -0.40786       -4.51936
H          6.28277        0.44175       -5.42985
H          6.27212        0.48739       -3.61950
H          3.86051       -0.24168       -3.62487
H          3.87754       -0.27475       -5.43210
C          5.02463       -1.83998       -4.49744
H          5.91575        2.77166       -4.61183
H          5.65398       -2.03371       -5.39243
H          5.62547       -2.01660       -3.58037
H          4.16949       -2.54867       -4.50670
C          4.08228       -1.14800        0.01117
C          5.42056       -0.81410       -0.05665
C          5.47906        0.55938       -0.12007
C          4.16869        1.00214       -0.09124
N          3.32364       -0.03712       -0.00845
C          3.72631        2.42108       -0.11204
N          2.86744        2.69097       -1.28141
C          2.37989        4.09268       -1.35681
H          6.25860       -1.49786       -0.05573
H          3.68518       -2.15306        0.06920
H          6.37121        1.16819       -0.17705
H          3.17690        2.59338        0.83401
H          4.63599        3.05294       -0.13801
C          3.54648        5.10949       -1.42408
C          1.55443        4.22492       -2.64423
C          1.46518        4.43994       -0.15892
H          4.22240        4.87037       -2.27276
H          3.15631        6.14114       -1.56279
H          4.13968        5.12802       -0.48709
H          0.69611        3.51953       -2.62822
H          1.15727        5.25832       -2.75231
H          2.18244        3.99648       -3.53185
H          0.62125        3.72313       -0.10211
H          2.01280        4.42544        0.80515
H          1.04882        5.46443       -0.26876

