%chk=speciation549.chk
%nprocshared=16
%mem=32GB
#p opt=loose PM7 scf=xqc 

 speciation study

0 1
Na         6.42173        0.97980        1.96131
Mg        -0.32497        3.17374       -3.32744
C          7.85575        1.76199        4.54623
C          8.53557        3.22466        2.79445
O          8.17552        1.90242        3.16772
C          6.77113        2.71397        5.06972
C          9.86852        3.67549        3.39637
H          7.47348        0.72811        4.67872
H          8.77197        1.81716        5.17111
H          8.70390        3.23231        1.70939
H          7.72496        3.95570        2.99063
H         10.67798        2.98033        3.08749
H         10.11261        4.69262        3.02174
H          9.82329        3.72342        4.50251
H          5.85567        2.63440        4.44705
H          6.52016        2.44296        6.11670
H          7.12580        3.76521        5.08708
C          4.57091       -1.25633        0.36668
C          3.52339       -1.45459       -0.50577
C          2.91631       -0.22749       -0.67298
C          3.63010        0.67391        0.08108
N          4.63015        0.03730        0.72890
C          3.36161        2.14876        0.18943
N          3.24838        2.86176       -1.11198
C          2.97320        4.32658       -0.97176
H          3.25302       -2.38464       -0.98791
H          5.28480       -2.00604        0.68218
H          2.07757       -0.00360       -1.29736
H          2.39439        2.21636        0.72079
H          4.15105        2.58802        0.82865
C          4.18317        5.07551       -0.37558
C          2.72070        4.87683       -2.37806
C          1.71785        4.61691       -0.11714
H          5.07538        4.93414       -1.01177
H          3.97683        6.17109       -0.33038
H          4.41435        4.74865        0.65806
H          1.85462        4.37644       -2.84811
H          2.53654        5.97332       -2.35172
H          3.62598        4.68530       -2.98665
H          0.82855        4.10679       -0.53939
H          1.85372        4.30857        0.93970
H          1.51841        5.71171       -0.09588
Na         4.33678        2.49229       -3.07508
C          6.70552        1.02938       -4.02385
C          7.29413        1.90741       -1.94140
O          6.39620        1.99813       -3.03702
C          6.48332       -0.41580       -3.55708
C          7.02027        2.99535       -0.93386
H          6.02386        1.21127       -4.87878
H          7.73640        1.17404       -4.41830
H          7.20829        0.94330       -1.39511
H          8.33996        2.06385       -2.29268
H          6.03303        2.83707       -0.46897
H          7.78678        2.92612       -0.14846
H          7.09263        3.99310       -1.40725
H          5.46098       -0.52803       -3.14340
H          6.61372       -1.10286       -4.41722
H          7.22787       -0.71583       -2.78911
C          0.46598        0.29993       -3.24509
C          1.36525       -0.57821       -3.81475
C          2.12929        0.15054       -4.70341
C          1.65875        1.44468       -4.63140
N          0.65461        1.53977       -3.74589
C          2.11388        2.59675       -5.44745
N          3.54466        2.88903       -5.24760
C          4.04472        3.97249       -6.16029
H          1.44779       -1.63566       -3.60819
H         -0.28141        0.05944       -2.50554
H          2.92044       -0.22628       -5.33786
H          1.49535        3.47230       -5.17307
H          1.90472        2.31142       -6.49591
C          3.36094        5.33875       -5.89740
C          5.55301        4.12174       -5.93565
C          3.82791        3.63390       -7.66493
H          3.51896        5.69336       -4.86900
H          3.77921        6.11759       -6.57169
H          2.27092        5.30310       -6.10406
H          6.07562        3.17930       -6.20135
H          5.96754        4.93270       -6.57523
H          5.76253        4.36544       -4.87404
H          4.28811        2.65938       -7.92976
H          2.75535        3.61609       -7.95120
H          4.28491        4.41803       -8.31009

