%chk=speciation871.chk
%nprocshared=16
%mem=32GB
#p opt=loose PM7 scf=xqc 

 speciation study

0 1
Na         0.99600        0.02906       -0.09560
Mg        -2.34716        1.77790       -0.20928
H         -0.03878        2.89429        0.33237
C         -1.19772        4.71930        0.39904
C         -0.90871        3.34066       -0.19752
C         -1.55066        4.64908        1.88789
H         -0.28758        5.35000        0.27510
H         -2.03211        5.18827       -0.16325
H         -2.46419        4.03227        2.02128
H         -0.71475        4.18401        2.45610
C         -1.80582        6.04775        2.45307
H         -0.61904        3.48063       -1.25854
H         -0.89309        6.67678        2.36653
H         -2.63665        6.54153        1.90520
H         -2.08267        5.97649        3.52612
C         -1.05553       -0.82606       -4.71924
C         -0.61752        0.44655       -4.43202
C         -0.76690        0.61735       -3.06327
C         -1.30273       -0.55576       -2.58168
N         -1.46681       -1.43085       -3.59331
C         -1.67643       -0.94536       -1.17759
N         -1.37400        0.02906       -0.09560
C         -1.71841       -0.52486        1.25535
H         -0.23073        1.16380       -5.14416
H         -1.07203       -1.29342       -5.69812
H         -0.51958        1.50400       -2.50199
H         -1.09828       -1.87185       -1.00906
H         -2.75587       -1.17362       -1.21757
C         -0.85689       -1.75943        1.61034
C         -1.43420        0.56484        2.29960
C         -3.20889       -0.92877        1.38522
H          0.20979       -1.50052        1.53847
H         -1.06261       -2.09910        2.64833
H         -1.06138       -2.63444        0.96156
H         -2.06150        1.45973        2.10510
H         -1.66991        0.19522        3.32309
H         -0.36595        0.86457        2.27409
H         -3.86994       -0.06626        1.20020
H         -3.48795       -1.75868        0.70431
H         -3.42127       -1.30074        2.41099
Na         4.07029       -1.46320       -1.45499
Mg        -2.16247       -3.25035       -3.43259
H         -4.98085        1.17878       -0.26053
C         -5.09806        2.92871       -1.48966
C         -4.47410        2.16480       -0.32133
C         -4.88593        2.19839       -2.82363
H         -6.19325        3.02750       -1.30442
H         -4.65600        3.94563       -1.53577
H         -3.79682        2.09454       -3.00974
H         -5.34382        1.18703       -2.77491
C         -5.52237        2.97307       -3.97494
H         -4.70668        2.71403        0.61605
H         -6.62104        3.05976       -3.82911
H         -5.08504        3.99166       -4.04448
H         -5.33393        2.43990       -4.93071
C          2.19383        2.82158       -3.53898
C          2.79809        1.71530       -4.09241
C          3.43589        1.03185       -3.06793
C          3.22327        1.69781       -1.93070
N          2.43084        2.84535       -2.15590
C          3.79709        1.35673       -0.58450
N          3.36600        0.02906       -0.09560
C          3.90407       -0.32563        1.24887
H          2.78604        1.45075       -5.14143
H          1.62793        3.56899       -4.07916
H          4.02603        0.13547       -3.18037
H          3.46353        2.15122        0.11025
H          4.89780        1.39596       -0.69352
C          3.38174        0.63814        2.33923
C          3.43287       -1.74753        1.59104
C          5.45200       -0.33881        1.27108
H          2.27146        0.65990        2.34082
H          3.72987        0.31440        3.34398
H          3.76008        1.67068        2.19746
H          3.80338       -2.47748        0.84092
H          3.80498       -2.05773        2.59269
H          2.33350       -1.80100        1.60741
H          5.84813       -1.04247        0.50791
H          5.88511        0.66558        1.09348
H          5.82108       -0.66487        2.26826

