%chk=speciation982.chk
%nprocshared=16
%mem=32GB
#p opt=loose PM7 scf=xqc 

 speciation study

0 1
Na         0.98273        0.06618        0.24976
Mg        -2.12176       -4.33517       -2.33697
C          2.08307        2.31635        1.94080
C          2.92966        0.16385        2.56825
O          1.88481        0.90542        1.95770
C          3.45121        2.79759        1.43292
C          2.95643        0.35052        4.08896
H          1.31529        2.73979        1.26222
H          1.86627        2.74946        2.94124
H          2.73416       -0.91030        2.37698
H          3.92078        0.36708        2.11494
H          1.98172        0.05071        4.52901
H          3.75640       -0.28255        4.52905
H          3.16909        1.40525        4.36124
H          3.67170        2.35914        0.43851
H          3.44463        3.90514        1.34607
H          4.26140        2.53980        2.14753
H         -1.13011       -6.19511       -3.84282
C         -2.37916       -7.31694       -2.48263
C         -1.39190       -6.19188       -2.76303
C         -3.64324       -7.15090       -3.33372
H         -1.89199       -8.28550       -2.73124
H         -2.64344       -7.31096       -1.40385
H         -4.13774       -6.18752       -3.08403
H         -3.37253       -7.14305       -4.41326
C         -4.62358       -8.29455       -3.08991
H         -0.46020       -6.33285       -2.17586
H         -4.15829       -9.26575       -3.36410
H         -4.92521       -8.32257       -2.02157
H         -5.53077       -8.14873       -3.71365
C          0.22300       -2.78444        1.48654
C         -0.61481       -3.87764        1.39358
C         -1.45902       -3.63946        0.33933
C         -1.09809       -2.40460       -0.16731
N         -0.06978       -1.87563        0.53074
C         -1.73362       -1.72231       -1.33496
N         -2.83373       -2.52397       -1.92134
C         -3.46402       -1.88374       -3.11090
H         -0.61067       -4.75815        2.02371
H          1.01002       -2.65913        2.21963
H         -2.24553       -4.29395       -0.01590
H         -2.10836       -0.74749       -0.96631
H         -0.92063       -1.56785       -2.06945
C         -2.44154       -1.63326       -4.24728
C         -4.54591       -2.83224       -3.64896
C         -4.14346       -0.54593       -2.73283
H         -1.93108       -2.57909       -4.52775
H         -2.95137       -1.22668       -5.14758
H         -1.67635       -0.88132       -3.96544
H         -5.30525       -3.04439       -2.86694
H         -5.06442       -2.37383       -4.52157
H         -4.09505       -3.79087       -3.98140
H         -4.88383       -0.70336       -1.92003
H         -3.40924        0.21788       -2.40520
H         -4.67019       -0.11268       -3.61034
C          1.94294       -0.08174       -2.53837
C          1.43413        2.17544       -1.92721
O          1.17599        0.79153       -1.71692
C          3.45947        0.16516       -2.54798
C          0.89229        2.67068       -3.27553
H          1.78129       -1.10802       -2.14717
H          1.53968       -0.09440       -3.57332
H          0.90814        2.75283       -1.13913
H          2.50613        2.43072       -1.81126
H         -0.21020        2.54596       -3.31639
H          1.13208        3.74807       -3.40416
H          1.35015        2.12448       -4.12615
H          3.85740        0.16162       -1.51204
H          3.95652       -0.63873       -3.13078
H          3.71652        1.12175       -3.04934

