%chk=speciation347.chk
%nprocshared=16
%mem=32GB
#p opt=loose PM7 scf=xqc 

 speciation study

0 1
Na         1.40203        2.00574        0.23996
Mg         3.38218        0.08335       -1.63630
C          1.17958        4.84353        0.82268
C          2.82551        4.27622       -0.82477
O          2.14466        3.90672        0.36091
C          0.17701        5.35151       -0.22279
C          3.85287        5.37539       -0.56194
H          0.59179        4.32777        1.61095
H          1.68258        5.69439        1.32949
H          3.38812        3.38444       -1.17379
H          2.14214        4.53619       -1.65750
H          4.57083        5.04282        0.21776
H          4.41230        5.59357       -1.49580
H          3.35575        6.30870       -0.22666
H         -0.32608        4.49858       -0.72405
H         -0.59033        5.97617        0.28149
H          0.67148        5.99972       -0.97596
H          5.30785        0.93757       -3.19579
C          3.65681        0.44466       -4.50532
C          4.54792        0.13496       -3.30961
C          2.98149        1.80962       -4.31828
H          4.27816        0.45885       -5.42733
H          2.88687       -0.35082       -4.59859
H          2.36891        1.80270       -3.39001
H          3.75965        2.59908       -4.22325
C          2.08305        2.15532       -5.50212
H          5.06802       -0.83762       -3.43604
H          2.67516        2.18488       -6.44176
H          1.27143        1.40451       -5.60330
H          1.62559        3.15493       -5.34108
C         -1.67493        1.09285        0.04814
C         -2.32503       -0.11516       -0.11881
C         -1.34372       -1.08341       -0.23137
C         -0.14226       -0.41490       -0.12538
N         -0.34303        0.89876        0.03958
C          1.22107       -1.02007       -0.16793
N          2.24500        0.03300       -0.00400
C          3.23225       -0.17432        1.07726
H         -3.39284       -0.27900       -0.15113
H         -2.14602        2.05681        0.17357
H         -1.48830       -2.14713       -0.36537
H          1.37079       -1.51846       -1.14791
H          1.26911       -1.79539        0.62054
C          4.03518       -1.47845        0.86974
C          4.22002        1.00406        1.01735
C          2.54865       -0.17129        2.46139
H          4.53883       -1.47021       -0.12100
H          4.81510       -1.58021        1.65577
H          3.39362       -2.38022        0.92469
H          3.68888        1.96742        1.15468
H          4.99145        0.92016        1.81279
H          4.73483        1.03125        0.03212
H          1.96029        0.76089        2.59903
H          1.86620       -1.03482        2.59102
H          3.30944       -0.23143        3.26939

