%chk=speciation2048.chk
%nprocshared=16
%mem=32GB
#p opt=loose PM7 scf=xqc 

 speciation study

0 1
Na         4.35883        4.55443        3.01163
Mg         2.38129        4.88805       -1.45523
C          2.72042        4.26292        5.98142
C          2.82828        6.41800        5.09716
O          3.31269        5.09615        5.01027
C          3.24736        2.84543        5.84108
C          3.53143        7.28243        4.05910
H          3.00791        4.61733        6.99753
H          1.61182        4.24013        5.87471
H          1.73476        6.45145        4.89142
H          3.05981        6.85111        6.09629
H          3.31897        6.90580        3.03628
H          3.16883        8.32966        4.13576
H          4.62905        7.27038        4.23092
H          4.35678        2.84459        5.89446
H          2.84842        2.22069        6.66875
H          2.92292        2.41125        4.87216
H          3.81928        7.24503       -1.20606
C          5.25617        6.08131       -2.34189
C          4.11917        6.18416       -1.32113
C          4.89106        6.74351       -3.66382
H          6.17606        6.56981       -1.95034
H          5.46038        5.01227       -2.51204
H          3.91020        6.39622       -3.97026
H          4.83046        7.84454       -3.53566
C          5.87695        6.37615       -4.76872
H          4.50730        5.86319       -0.34153
H          6.89268        6.75909       -4.54191
H          5.92080        5.27045       -4.88908
H          5.52366        6.81092       -5.72728
C          6.65865        4.50032        0.75013
C          7.17128        4.01980       -0.43265
C          6.20424        3.19074       -0.96028
C          5.13385        3.22713       -0.08790
N          5.42751        4.00104        0.96992
C          3.85858        2.46748       -0.20135
N          3.10663        2.78655       -1.44504
C          2.01705        1.79665       -1.68916
H          8.14092        4.23909       -0.85282
H          7.16833        5.16793        1.43275
H          6.29290        2.62783       -1.88177
H          4.16562        1.40625       -0.15507
H          3.23936        2.68224        0.68630
C          0.93930        1.95218       -0.60088
C          1.43131        2.12822       -3.05088
C          2.48091        0.29843       -1.81115
H          0.67013        3.02153       -0.49161
H          0.02364        1.37861       -0.85024
H          1.31338        1.58153        0.37690
H          2.18511        2.02087       -3.86114
H          0.54894        1.49804       -3.29156
H          1.15146        3.15175       -3.01234
H          3.55469        0.12013       -1.63887
H          1.86996       -0.36975       -1.16705
H          2.33570       -0.11202       -2.83866
Na         4.40673        2.31866       -3.08887
C         -0.29484        5.40684       -2.75534
C          1.47676        5.26071       -4.34134
O          1.12404        5.38554       -2.96988
C         -1.16274        4.28349       -3.36755
C          1.23915        6.56182       -5.11686
H         -0.47419        5.36699       -1.67323
H         -0.69907        6.38911       -3.08462
H          2.53473        4.95969       -4.39659
H          0.98482        4.42018       -4.85769
H          1.74985        7.41738       -4.62791
H          1.61728        6.45383       -6.15461
H          0.15104        6.77826       -5.17958
H         -0.94187        3.29342       -2.93235
H         -2.22570        4.47486       -3.12388
H         -1.09999        4.24138       -4.47375
H          0.40597        5.10404        0.51554
C          1.15111        7.14247        0.59831
C          1.37659        5.62227        0.38778
C          0.22276        7.79142       -0.44103
H          0.69889        7.30020        1.61235
H          2.13191        7.65574        0.58347
H          0.67089        7.66455       -1.44613
H         -0.77395        7.30426       -0.40784
C          0.02558        9.29193       -0.19529
H          2.04806        5.29221        1.20949
H         -0.44928        9.47412        0.79143
H          0.99703        9.82714       -0.23658
H         -0.63767        9.71196       -0.98301

