%chk=speciation550.chk
%nprocshared=16
%mem=32GB
#p opt=loose PM7 scf=xqc 

 speciation study

0 1
Na         1.06742        0.21922        0.25492
Mg         0.53537       -2.74298        5.42837
C         -0.81199       -1.29938       -1.62175
C          0.30808        0.34774       -2.86008
O         -0.02127       -0.12322       -1.56250
C         -0.04009       -2.52271       -2.12868
C          0.98027        1.71084       -2.78995
H         -1.17049       -1.51105       -0.59585
H         -1.73800       -1.13893       -2.22104
H          1.00283       -0.34756       -3.37536
H         -0.61087        0.48283       -3.47655
H          1.91014        1.66012       -2.19526
H          1.24135        2.04090       -3.82037
H          0.30224        2.45467       -2.32870
H          0.88273       -2.66472       -1.53258
H         -0.67179       -3.43049       -2.03490
H          0.22520       -2.41677       -3.20156
C         -1.93282       -3.99111        4.45736
C         -2.72131       -4.14801        3.34274
C         -2.09893       -3.47101        2.31219
C         -0.94875       -2.91645        2.84461
N         -0.84964       -3.26086        4.14929
C          0.08076       -2.09756        2.08692
N         -0.25856       -0.65993        1.92205
C         -0.18384        0.19251        3.15237
H         -3.65618       -4.69563        3.29123
H         -2.14074       -4.38325        5.44453
H         -2.44933       -3.40101        1.29224
H          0.15592       -2.55603        1.07968
H          1.08791       -2.23137        2.51785
C          1.19771        0.11112        3.82712
C         -0.46732        1.63696        2.71800
C         -1.26603       -0.13214        4.20931
H          1.99738        0.35122        3.10331
H          1.24935        0.80803        4.69276
H          1.38963       -0.90286        4.23452
H         -1.48522        1.71870        2.27799
H         -0.42312        2.32650        3.59194
H          0.26297        1.96921        1.96121
H         -2.26513       -0.14461        3.74750
H         -1.08897       -1.06245        4.75491
H         -1.28084        0.63719        5.01171
Na        -2.58866       -0.53232        1.50820
C         -5.64210       -1.07680        2.09229
C         -5.10574       -0.99061       -0.17713
O         -4.86959       -0.40741        1.10308
C         -5.24457       -0.64604        3.49252
C         -6.51552       -0.69400       -0.71393
H         -6.70764       -0.78065        1.99248
H         -5.54257       -2.18517        2.02962
H         -4.38636       -0.52814       -0.88588
H         -4.90819       -2.08081       -0.16941
H         -6.69409        0.40254       -0.75708
H         -6.62252       -1.11660       -1.73337
H         -7.30322       -1.16101       -0.08650
H         -5.30116        0.45909        3.59047
H         -5.94013       -1.10472        4.22848
H         -4.22887       -1.00663        3.72264
C          2.01979        3.83533        3.61502
C          1.64135        4.47581        2.45354
C          2.22671        3.80127        1.38674
C          2.92993        2.78190        1.88500
N          2.84051        2.74664        3.29643
C          3.83105        1.84393        1.13687
N          3.22279        1.02006        0.05769
C          4.26263        0.19465       -0.65716
H          1.01862        5.35783        2.40190
H          1.75119        4.12529        4.62178
H          2.15863        4.07598        0.34125
H          4.26326        1.18837        1.91392
H          4.62222        2.49425        0.72326
C          5.04075       -0.72541        0.31786
C          3.59793       -0.72467       -1.69524
C          5.26582        1.09283       -1.43704
H          4.33596       -1.38611        0.86594
H          5.76425       -1.36267       -0.23572
H          5.65236       -0.15793        1.04716
H          3.12915       -0.14805       -2.50977
H          4.36591       -1.37034       -2.18263
H          2.84900       -1.38293       -1.21515
H          4.72534        1.73273       -2.16837
H          5.87597        1.74844       -0.78664
H          5.99675        0.47220       -2.00014

