%chk=speciation102.chk
%nprocshared=16
%mem=32GB
#p opt=loose PM7 scf=xqc 

 speciation study

0 1
Na         1.22175        0.05525        0.22289
C          1.50584        2.12184       -3.29180
C          2.71700        2.09721       -3.94882
C          3.68755        1.78001       -3.01509
C          3.09072        1.61517       -1.83368
N          1.69547        1.81041       -1.93487
C          3.80080        1.32356       -0.54201
N          3.35270        0.04419        0.03311
C          3.93418       -0.29415        1.35920
H          2.87106        2.30742       -4.99879
H          0.55008        2.35153       -3.74397
H          4.75010        1.70107       -3.20290
H          3.56627        2.16796        0.13337
H          4.89062        1.29200       -0.73636
C          3.57912        0.76781        2.42390
C          3.33265       -1.63826        1.80952
C          5.46790       -0.46034        1.27679
H          2.47896        0.89694        2.49253
H          3.95943        0.45788        3.42263
H          4.04455        1.74875        2.20367
H          3.57172       -2.44159        1.08139
H          3.73801       -1.94179        2.79869
H          2.22873       -1.56438        1.89835
H          5.73601       -1.23875        0.53005
H          5.97246        0.48723        1.00168
H          5.87854       -0.76884        2.26328
Na         3.90839       -1.50126       -1.33845

