%chk=speciation2260.chk
%nprocshared=16
%mem=32GB
#p opt=loose PM7 scf=xqc 

 speciation study

0 1
Na         1.27328       -0.38333        0.45898
Mg         3.35139       -4.58229       -3.82647
C         -0.96175        1.75237        0.37032
C          0.37010        2.50039        2.07540
O          0.20812        1.47305        1.10019
C         -1.17143        0.68658       -0.66752
C          1.59013        2.30657        2.95455
H         -1.85245        1.73343        1.04211
H         -0.88871        2.72753       -0.16618
H          0.48245        3.49945        1.58421
H         -0.50675        2.51656        2.76441
H          2.51817        2.36993        2.35144
H          1.61007        3.11876        3.71824
H          1.53298        1.33349        3.47957
H         -1.21882       -0.25719       -0.13277
H         -2.13368        0.83389       -1.19476
H         -0.32557        0.66725       -1.38122
H          4.00869       -7.08663       -4.53038
C          3.10846       -7.54572       -2.61255
C          3.93642       -6.61965       -3.52516
C          1.69657       -7.79101       -3.15709
H          3.63370       -8.52469       -2.54031
H          3.05005       -7.10757       -1.59451
H          1.15315       -6.82751       -3.21359
H          1.75731       -8.23105       -4.17630
C          0.90751       -8.75407       -2.26521
H          4.96373       -6.54337       -3.11121
H          1.40624       -9.74763       -2.22314
H          0.81791       -8.34990       -1.23456
H         -0.11386       -8.89752       -2.67814
C         -1.08297       -2.66319        0.38212
C         -1.61335       -3.82621       -0.14090
C         -0.63750       -4.38731       -0.91657
C          0.45412       -3.53970       -0.84759
N          0.18593       -2.44742       -0.06698
C          1.73987       -3.83448       -1.58036
N          1.59855       -3.84041       -3.05633
C          1.32392       -2.52789       -3.69683
H         -2.61159       -4.20825        0.02711
H         -1.62708       -1.99659        1.01818
H         -0.72437       -5.30797       -1.47612
H          2.54916       -3.15670       -1.26023
H          2.05800       -4.85259       -1.26494
C          2.41505       -1.50454       -3.32606
C          1.31061       -2.75054       -5.21571
C         -0.07261       -1.96288       -3.34325
H          3.42099       -1.91916       -3.53838
H          2.27810       -0.55828       -3.88534
H          2.36401       -1.24743       -2.24711
H          0.48734       -3.44200       -5.50008
H          1.15437       -1.78869       -5.75266
H          2.25490       -3.19166       -5.56621
H         -0.86245       -2.72737       -3.51951
H         -0.14113       -1.60485       -2.30869
H         -0.30459       -1.07214       -3.96090
Na         6.50253        3.44269       -0.11775
Mg         0.14855       -5.01619       -3.64299
C          9.19585        4.71136        1.04199
C          8.58406        2.78958        2.17290
O          8.10795        3.92824        1.48515
C          8.67672        5.93766        0.30701
C          7.41681        1.93624        2.64264
H          9.76647        5.08668        1.92328
H          9.86959        4.13919        0.36534
H          9.24102        2.16739        1.52253
H          9.14071        3.10546        3.08615
H          6.85042        1.55031        1.77146
H          7.80051        1.07444        3.22945
H          6.73757        2.53395        3.28678
H          7.97762        6.50638        0.95715
H          9.52865        6.59761        0.03749
H          8.14902        5.63253       -0.62052
H          4.24212       -4.04901       -6.34827
C          6.23124       -4.22669       -5.59672
C          4.76124       -3.82427       -5.39152
C          7.10274       -3.91460       -4.37710
H          6.28707       -5.31065       -5.83258
H          6.63178       -3.66053       -6.47170
H          7.05277       -2.82895       -4.14123
H          6.72166       -4.48879       -3.50746
C          8.56433       -4.29205       -4.62226
H          4.73516       -2.72108       -5.26395
H          9.15775       -4.08458       -3.70600
H          8.99027       -3.69537       -5.45924
H          8.65194       -5.37224       -4.86597
C          4.27250       -1.14322        0.32631
C          5.58038       -0.85984        0.00991
C          5.59950        0.41625       -0.49839
C          4.29764        0.86277       -0.46804
N          3.47004       -0.09083        0.04824
C          3.84684        2.23401       -0.92216
N          4.86252        2.94668       -1.75520
C          4.45889        4.35514       -2.07965
H          6.43003       -1.51625        0.13376
H          3.90869       -2.07271        0.74234
H          6.47232        0.95679       -0.83982
H          2.91515        2.09176       -1.50013
H          3.61683        2.80089        0.00453
C          4.46820        5.27119       -0.82380
C          5.48256        4.92142       -3.07659
C          3.05632        4.44744       -2.72849
H          5.46260        5.31111       -0.33978
H          4.21751        6.31730       -1.10693
H          3.71663        4.96629       -0.06862
H          5.48461        4.32371       -4.01319
H          5.23478        5.97566       -3.33812
H          6.50310        4.90529       -2.64109
H          2.99736        3.82740       -3.64576
H          2.25643        4.14054       -2.02349
H          2.83196        5.50299       -3.00258

