%chk=speciation859.chk
%nprocshared=16
%mem=32GB
#p opt=loose PM7 scf=xqc 

 speciation study

0 1
Na         3.61159        0.22160        2.73172
Mg         2.44919        4.40666       -0.87443
H          3.10966        6.78126        0.25571
C          5.11762        6.23315       -0.39144
C          3.70696        5.85968        0.09404
C          5.11426        6.96366       -1.73523
H          5.58700        6.89431        0.37275
H          5.73698        5.31542       -0.47255
H          4.66513        6.30817       -2.51003
H          4.51339        7.89525       -1.65276
C          6.53857        7.33742       -2.15820
H          3.83395        5.36754        1.08210
H          7.00070        8.02406       -1.41539
H          7.17183        6.42871       -2.24846
H          6.51710        7.85078       -3.14255
C          5.48187       -0.91626        0.57764
C          6.09386       -0.70813       -0.63964
C          5.71749        0.54437       -1.07066
C          4.87755        1.04489       -0.09411
N          4.74375        0.15724        0.91706
C          4.18270        2.38028       -0.13565
N          3.29630        2.58010       -1.31140
C          2.11468        1.67990       -1.42690
H          6.74224       -1.39942       -1.15825
H          5.56458       -1.80832        1.18450
H          6.00217        1.03119       -1.98664
H          3.61465        2.54575        0.80206
H          4.97047        3.15439       -0.16726
C          1.15650        1.89277       -0.23689
C          1.41154        2.04532       -2.74507
C          2.45357        0.17213       -1.53486
H          0.88716        2.96205       -0.13106
H          0.22680        1.29916       -0.36509
H          1.62576        1.55917        0.71265
H          2.07735        1.82623       -3.60778
H          0.47760        1.45676       -2.87555
H          1.16747        3.11721       -2.78804
H          3.19895       -0.01537       -2.33703
H          2.80776       -0.25566       -0.58253
H          1.53924       -0.41428       -1.77096
Na         4.34160        2.44769       -3.27388
Mg         3.47124        0.30793       -8.91206
H          0.81183        5.71186       -2.61011
C         -0.21615        6.51704       -0.90116
C          0.56199        5.37473       -1.58216
C         -0.73230        6.14320        0.49551
H          0.42864        7.41755       -0.83995
H         -1.09910        6.76453       -1.53746
H         -1.40166        5.25736        0.42501
H          0.12657        5.89486        1.15265
C         -1.52521        7.29514        1.12481
H         -0.15266        4.52863       -1.67875
H         -0.88490        8.19617        1.23428
H         -2.40872        7.55587        0.50170
H         -1.88795        6.99828        2.13244
C          6.12826       -0.85384       -8.55918
C          7.16546       -1.02094       -7.66531
C          6.78480       -0.39470       -6.49777
C          5.53060        0.13342       -6.73165
N          5.13071       -0.15070       -7.98996
C          4.71543        0.90668       -5.73443
N          5.42583        2.07918       -5.17957
C          5.63080        3.25599       -6.07449
H          8.09560       -1.54230       -7.84713
H          6.10127       -1.22603       -9.57472
H          7.35789       -0.32690       -5.58365
H          4.51597        0.21732       -4.88899
H          3.72489        1.18692       -6.14338
C          4.30849        3.74906       -6.69938
C          6.21658        4.39251       -5.21901
C          6.64919        2.96035       -7.20323
H          3.56817        3.98564       -5.90715
H          4.48408        4.66535       -7.30563
H          3.87790        2.99407       -7.38863
H          7.19053        4.08851       -4.77838
H          6.38903        5.30316       -5.83646
H          5.52409        4.65828       -4.39359
H          7.61273        2.60129       -6.78121
H          6.27422        2.21763       -7.92946
H          6.85370        3.87834       -7.79741

