%chk=speciation159.chk
%nprocshared=16
%mem=32GB
#p opt=loose PM7 scf=xqc 

 speciation study

0 1
Na         0.93889       -0.04928        0.06194
Mg        -1.40294       -3.55880        3.87952
H         -0.62200       -3.72698        6.36419
C          0.72407       -5.10029        5.33410
C         -0.65086       -4.47236        5.54126
C          1.77230       -4.05925        4.93277
H          1.03450       -5.59527        6.28069
H          0.64410       -5.87123        4.53752
H          1.46803       -3.56891        3.98447
H          1.85690       -3.28295        5.72382
C          3.13897       -4.71418        4.73583
H         -1.37137       -5.27305        5.81116
H          3.48160       -5.18479        5.68237
H          3.08636       -5.49164        3.94354
H          3.88268       -3.94798        4.43151
C         -2.24684        0.49253       -0.86138
C         -3.56411        0.29215       -0.50577
C         -3.54608       -0.39756        0.68949
C         -2.21160       -0.58973        0.99768
N         -1.43111       -0.04928        0.06194
C         -1.64644       -1.29589        2.17236
N         -2.13658       -2.66764        2.25850
C         -1.79864       -3.70148        1.25386
H         -4.43643        0.61313       -1.05909
H         -1.89887        1.00505       -1.74915
H         -4.40545       -0.72762        1.25645
H         -0.53715       -1.27691        2.15667
H         -1.97662       -0.75552        3.08428
C         -0.27974       -3.78455        1.02985
C         -2.27417       -5.05414        1.83135
C         -2.55355       -3.49202       -0.07345
H          0.23214       -3.97653        1.99645
H         -0.03107       -4.61552        0.33540
H          0.11446       -2.84350        0.59654
H         -3.37024       -5.03854        2.01987
H         -2.05555       -5.88834        1.12976
H         -1.76842       -5.28655        2.79211
H         -3.64834       -3.43218        0.11712
H         -2.22829       -2.58372       -0.60893
H         -2.37507       -4.34983       -0.75804
Mg        -4.07953       -2.66014        2.43912
C          4.13892       -1.11088        0.08495
C          5.44789       -0.68354        0.15436
C          5.41656        0.69224        0.17706
C          4.08255        1.05073        0.11593
N          3.30889       -0.04928        0.06194
C          3.55050        2.45109        0.10195
N          2.63120        2.67057        1.23032
C          2.04705        4.03303        1.32012
H          6.33244       -1.30983        0.19672
H          3.80728       -2.13844        0.06882
H          6.26643        1.36241        0.23712
H          4.41556        3.14079        0.16165
H          3.02385        2.59016       -0.86173
C          1.14437        4.34331        0.10499
C          1.17420        4.08570        2.58728
C          3.14520        5.11097        1.45309
H          0.33886        3.58267        0.01508
H          0.66947        5.34248        0.21789
H          1.71891        4.36505       -0.84241
H          1.77977        3.85299        3.48934
H          0.73085        5.09821        2.71899
H          0.34262        3.35105        2.52468
H          3.80261        4.88534        2.32026
H          3.76699        5.18166        0.53831
H          2.69166        6.11389        1.60569

