%chk=speciation1508.chk
%nprocshared=16
%mem=32GB
#p opt=loose PM7 scf=xqc 

 speciation study

0 1
Na        -0.41882       -6.44735       -3.58700
Mg         1.81824       -0.71326       -2.70229
C          0.95440        1.44122       -1.01398
C         -0.64400       -0.25802       -1.12713
O          0.47579        0.33634       -1.76439
C          1.50996        1.11955        0.37941
C         -1.16959       -1.41515       -1.93480
H          1.75843        1.89521       -1.60253
H          0.17647        2.22966       -0.94814
H         -0.37381       -0.67415       -0.13345
H         -1.47233        0.47896       -1.03576
H         -0.35237       -2.13547       -2.02717
H         -2.02250       -1.89076       -1.40327
H         -1.49540       -1.08800       -2.94090
H          2.30074        0.35671        0.32590
H          1.94129        2.03270        0.82623
H          0.71378        0.76328        1.07192
H          4.09759        0.20581       -4.10603
C          4.35505        1.77859       -2.66004
C          3.43948        0.79099       -3.42855
C          5.34307        1.05503       -1.76174
H          4.92523        2.40752       -3.38477
H          3.74900        2.48201       -2.05340
H          4.77279        0.42352       -1.07121
H          6.01316        0.41590       -2.38059
C          6.18044        2.00527       -0.91283
H          2.81938        1.45152       -4.06591
H          6.81489        2.65736       -1.54807
H          5.52079        2.63711       -0.27886
H          6.83601        1.40859       -0.24291
C          3.15205       -2.10281       -0.46034
C          3.32425       -3.12838        0.43569
C          2.51751       -4.13878        0.00840
C          1.88924       -3.70302       -1.14427
N          2.27365       -2.40903       -1.44243
C          0.88368       -4.63990       -1.81644
N          1.25961       -5.19342       -3.13722
C          2.44611       -6.07750       -3.25525
H          3.96156       -3.14612        1.31261
H          3.65229       -1.16697       -0.36360
H          2.39627       -5.10208        0.50050
H         -0.11593       -4.18533       -1.89295
H          0.70155       -5.50690       -1.14686
C          2.33177       -7.31622       -2.33998
C          2.50447       -6.57374       -4.71534
C          3.75537       -5.31200       -2.98498
H          1.39817       -7.87749       -2.56453
H          3.19100       -8.00349       -2.50391
H          2.32824       -7.04080       -1.26713
H          2.59317       -5.72256       -5.42332
H          3.38797       -7.23076       -4.87337
H          1.59349       -7.15256       -4.97753
H          3.78778       -4.38477       -3.59676
H          3.87450       -5.04827       -1.92385
H          4.63813       -5.93842       -3.23177
Na         1.22804       -3.99094       -4.85110
H          1.84992       -1.94209       -5.02484
C          0.28181       -0.60969       -5.68632
C          0.99613       -1.40208       -4.57280
C          1.12940        0.42534       -6.44167
H         -0.59478       -0.09166       -5.24257
H         -0.10490       -1.33658       -6.43718
H          0.47481        0.91420       -7.19726
H          1.47690        1.21218       -5.75141
C          2.31772       -0.18451       -7.18781
H          0.24952       -2.13147       -4.20919
H          3.04402       -0.63517       -6.48218
H          1.96986       -0.95834       -7.90577
H          2.84216        0.61124       -7.75883

