%chk=speciation158.chk
%nprocshared=16
%mem=32GB
#p opt=loose PM7 scf=xqc 

 speciation study

0 1
Na         1.30633        0.25713        0.09469
Mg         4.07525       -1.61588       -0.55263
H          4.54404       -4.16710       -0.07846
C          2.84270       -4.22968       -1.40929
C          3.59326       -3.61428       -0.23150
C          1.52084       -3.51475       -1.72129
H          3.49351       -4.20797       -2.30880
H          2.62259       -5.29133       -1.16246
H          1.01508       -4.06372       -2.54345
H          0.85566       -3.52941       -0.83025
C          1.73188       -2.07363       -2.17984
H          2.97667       -3.71522        0.68547
H          2.17695       -1.47643       -1.36793
H          2.39957       -2.04097       -3.06712
H          0.75701       -1.61555       -2.44602
C          6.08121       -0.95345       -2.78537
C          6.42472        0.26211       -3.35202
C          5.68566        1.23011       -2.69553
C          4.93705        0.55667       -1.75138
N          5.16617       -0.75850       -1.81904
C          3.97882        1.15547       -0.76046
N          3.44048        0.11072        0.14893
C          3.87764        0.18201        1.56169
H          7.12951        0.42411       -4.15529
H          6.46986       -1.92244       -3.06991
H          5.70131        2.29577       -2.87864
H          3.14059        1.61493       -1.32429
H          4.50229        1.96401       -0.21875
C          3.42241        1.49800        2.23291
C          3.20896       -0.97813        2.31507
C          5.40785        0.01332        1.66924
H          2.32019        1.61104        2.15300
H          3.69591        1.49291        3.31042
H          3.89733        2.39429        1.79033
H          3.54433       -1.94593        1.90476
H          3.47726       -0.96232        3.39336
H          2.10251       -0.91928        2.22641
H          5.72176       -0.94351        1.19763
H          5.94844        0.83996        1.16539
H          5.72554       -0.00129        2.73395

