%chk=speciation278.chk
%nprocshared=16
%mem=32GB
#p opt=loose PM7 scf=xqc 

 speciation study

0 1
Na         1.02178        0.20292        0.09994
Mg         0.65270       -1.50497        5.88453
C         -1.04125       -0.12445       -2.18754
C          0.95704        0.74282       -3.07679
O          0.26903        0.33806       -1.90433
C         -1.04953       -1.45618       -2.94957
C          2.31797        1.29603       -2.72046
H         -1.55247       -0.28463       -1.21658
H         -1.64099        0.64639       -2.72559
H          1.14736       -0.12236       -3.74790
H          0.39747        1.54339       -3.61153
H          2.90682        0.49139       -2.24831
H          2.85105        1.61482       -3.64118
H          2.21290        2.16283       -2.03531
H         -0.42193       -2.20186       -2.41888
H         -2.08752       -1.84129       -3.02652
H         -0.67238       -1.33260       -3.98671
C          0.35554       -3.30012        3.57369
C          0.12381       -3.30852        2.21766
C         -0.04205       -1.99126        1.83340
C          0.11180       -1.23433        2.97206
N          0.35493       -2.03594        4.03062
C          0.05777        0.25670        3.10117
N         -0.25259        0.97144        1.83736
C         -0.05057        2.44478        1.95220
H          0.06783       -4.18135        1.58164
H          0.51566       -4.17154        4.19638
H         -0.24189       -1.63698        0.83265
H          1.05544        0.53023        3.48533
H         -0.71080        0.49004        3.86523
C          1.43435        2.81756        2.20479
C         -0.47501        3.08153        0.62071
C         -0.92677        3.04676        3.07902
H          2.08321        2.39430        1.41129
H          1.55684        3.92250        2.20938
H          1.81184        2.47489        3.18879
H         -1.53963        2.85790        0.39838
H         -0.35256        4.18868        0.65992
H          0.15109        2.69499       -0.21087
H         -1.99510        2.77740        2.93239
H         -0.60713        2.69059        4.08122
H         -0.84134        4.15483        3.09772
Na        -2.58269        0.78192        1.44796
C          3.24801       -1.68978        0.82653
C          4.16206        0.40514        0.14651
O          3.05404       -0.48654        0.09349
C          3.65146       -1.49955        2.29559
C          5.39086       -0.13958       -0.60355
H          2.28800       -2.23027        0.80548
H          3.94903       -2.37278        0.30262
H          3.87297        1.35578       -0.34404
H          4.41919        0.69279        1.18408
H          5.15191       -0.31453       -1.67406
H          6.22517        0.59214       -0.54107
H          5.75227       -1.08974       -0.16057
H          2.95712       -0.79822        2.79865
H          3.62472       -2.47649        2.82069
H          4.68971       -1.11608        2.37955
C         -5.76820        1.62632        0.94264
C         -7.05865        1.16504        0.76722
C         -6.99224       -0.20717        0.77445
C         -5.66099       -0.52582        0.94853
N         -4.91278        0.59240        1.05855
C         -5.11836       -1.91213        1.01500
N         -4.49719       -2.13952        2.32399
C         -3.87601       -3.47086        2.51131
H         -7.95309        1.76323        0.65979
H         -5.47391        2.66581        0.99686
H         -7.81492       -0.90081        0.66530
H         -5.94391       -2.63669        0.86067
H         -4.37962       -1.99672        0.19540
C         -2.91541       -3.80759        1.35829
C         -3.09851       -3.42319        3.83854
C         -4.93417       -4.57906        2.61311
H         -2.24566       -2.95797        1.17181
H         -2.33049       -4.72734        1.57894
H         -3.45813       -3.99514        0.40787
H         -3.79097       -3.20996        4.68622
H         -2.58206       -4.38375        4.04204
H         -2.34564       -2.60569        3.82251
H         -5.65645       -4.35715        3.42747
H         -5.49278       -4.68654        1.65906
H         -4.44710       -5.55526        2.82122

