%chk=speciation53.chk
%nprocshared=16
%mem=32GB
#p opt=loose PM7 scf=xqc 

 speciation study

-1 1
Mg         0.91936       -0.29107        0.36935
C         -1.10967        1.22823        2.67148
C          0.53291        2.43132        1.48765
O          0.01325        1.13146        1.73622
C         -2.31665        2.13186        2.37033
C          1.12187        3.10158        2.74602
H         -1.65943        0.31844        2.79397
H         -0.72517        1.41930        3.69509
H          1.35584        2.33586        0.75227
H         -0.22676        3.08324        1.00662
H          1.91648        2.46438        3.18641
H          1.54920        4.09067        2.48474
H          0.34907        3.29582        3.52043
H         -3.03850        2.02196        3.21319
H         -2.89552        1.78807        1.50058
H         -2.06198        3.20068        2.28865
H          0.51162        1.42683       -1.68997
C         -1.40247        0.62420       -2.12370
C          0.01398        0.42509       -1.64250
C         -2.10287        1.63230       -1.26611
H         -1.39012        1.00747       -3.17060
H         -1.92309       -0.36075       -2.10539
H         -2.05228        1.23913       -0.24911
H         -1.60391        2.62236       -1.31875
C         -3.55937        1.76887       -1.71154
H          0.36238       -0.17113       -2.49617
H         -3.60013        2.13568       -2.75989
H         -4.06308        0.78122       -1.64948
H         -4.08384        2.48836       -1.05165
C         -1.71042       -4.12850       -2.31723
C         -0.93791       -5.22894       -2.66751
C          0.13441       -5.25318       -1.81058
C         -0.01858       -4.16507       -0.97601
N         -1.14693       -3.49770       -1.27144
C          0.92831       -3.75577        0.12970
N          0.52699       -2.51230        0.89085
C          0.23300       -2.88052        2.31916
H         -1.12908       -5.93116       -3.46931
H         -2.63004       -3.82653       -2.79300
H          0.94415       -5.97662       -1.79178
H          1.92567       -3.65488       -0.28651
H          0.99722       -4.65565        0.77704
C          1.46617       -3.38166        3.10595
C         -0.23379       -1.64006        2.95903
C         -0.94251       -3.90654        2.46312
H          2.30413       -2.65810        3.03258
H          1.20256       -3.50549        4.18389
H          1.81380       -4.37406        2.76060
H         -1.10751       -1.43635        2.32123
H         -0.53993       -1.76666        4.01999
H          0.56672       -0.87420        2.89904
H         -1.85336       -3.55412        1.92780
H         -0.70555       -4.92164        2.09661
H         -1.22404       -4.01962        3.53708
Mg        -1.12023       -2.19078       -0.00729
C          7.45578        1.32512        0.77198
C          6.75601        2.48661        0.53077
C          5.40168        2.20895        0.70851
C          5.28657        0.91277        1.03627
N          6.55914        0.29861        1.12019
C          3.97481        0.16469        1.24240
N          3.11437        0.13591        0.02916
C          3.77338       -0.49742       -1.18527
H          7.19066        3.43291        0.23320
H          8.53255        1.21095        0.68912
H          4.59309        2.89948        0.56760
H          3.42826        0.66339        2.06581
H          4.19233       -0.87115        1.57349
C          4.30012       -1.90748       -0.89168
C          2.73174       -0.62217       -2.26235
C          4.90876        0.33860       -1.84612
H          3.52872       -2.46090       -0.36232
H          4.55696       -2.44323       -1.83338
H          5.19541       -1.89372       -0.24359
H          2.40890        0.40811       -2.53787
H          3.11379       -1.08621       -3.19496
H          1.94064       -1.28717       -1.86544
H          4.58607        1.38463       -2.03709
H          5.85390        0.33349       -1.28822
H          5.19713       -0.10824       -2.82529

