%chk=speciation35.chk
%nprocshared=16
%mem=32GB
#p opt=loose PM7 scf=xqc 

 speciation study

-1 1
Mg         2.25693       -0.25562        0.88593
H          3.19988       -0.44763        3.62920
C          1.40573        0.64245        3.93736
C          2.62309        0.33819        3.09345
C          0.40394       -0.50744        3.93676
H          1.75252        0.84590        4.97580
H          0.91153        1.54966        3.53798
H          0.04040       -0.67070        2.89948
H          0.87288       -1.44804        4.30299
C         -0.77127       -0.14530        4.83973
H          3.27765        1.23206        3.14088
H         -0.42336       -0.04786        5.89143
H         -1.21524        0.82208        4.51909
H         -1.55071       -0.93146        4.78890
C         -2.03338       -1.19500        0.34524
C         -2.96421       -0.20987        0.10767
C         -2.30174        0.94005       -0.20355
C         -0.95699        0.58942       -0.15816
N         -0.79766       -0.69241        0.18408
C          0.12939        1.52854       -0.40591
N          1.47509        0.94600       -0.23523
C          2.49330        2.10756       -0.17003
H         -4.07245       -0.32226        0.21521
H         -2.24798       -2.21393        0.60222
H         -2.68308        1.91574       -0.41291
H         -0.07535        2.32137        0.32128
H          0.01981        1.90099       -1.44525
C          2.15714        3.19705        0.91718
C          3.92727        1.62907        0.12973
C          2.58056        2.87383       -1.52342
H          2.04596        2.76565        1.92413
H          2.95605        3.96845        0.97075
H          1.25845        3.80813        0.68760
H          4.30783        0.94160       -0.64633
H          4.61911        2.50758        0.16797
H          4.01790        1.14635        1.10829
H          2.93373        2.20761       -2.33648
H          1.62105        3.33925       -1.81958
H          3.30615        3.71943       -1.44548
Mg         0.93114       -1.32897        0.39553
C         -0.16321       -4.54640       -0.68260
C         -0.28725       -4.92739       -2.00752
C          0.18259       -3.88115       -2.75024
C          0.62941       -2.97529       -1.79521
N          0.27977       -3.24322       -0.56854
C          1.66875       -1.91774       -1.86772
N          2.39426       -1.79362       -0.51241
C          3.06105       -2.86232        0.33063
H         -0.58719       -5.90683       -2.40648
H         -0.33346       -5.23769        0.13615
H          0.27615       -3.86464       -3.83319
H          2.37305       -2.21579       -2.67044
H          1.18397       -0.96164       -2.16459
C          3.98109       -3.81510       -0.43108
C          3.91595       -2.06007        1.28454
C          2.14327       -3.68943        1.31378
H          4.74759       -3.25101       -0.99842
H          4.51036       -4.46113        0.31176
H          3.40799       -4.48655       -1.10100
H          3.19403       -1.56976        1.90822
H          4.52270       -2.67856        1.97373
H          4.53975       -1.31063        0.76136
H          1.35533       -3.05800        1.79100
H          1.71769       -4.60599        0.88473
H          2.73298       -4.11640        2.15642

