%chk=speciation4.chk
%nprocshared=16
%mem=32GB
#p opt=loose PM7 scf=xqc 

 speciation study

-1 1
Mg         1.05710       -0.05725        0.14928
H          0.83932        0.23930       -2.59422
C         -0.88692       -0.93060       -2.10885
C          0.57362       -0.58671       -1.90603
C         -1.28477       -2.10687       -1.21971
H         -1.48678       -0.03350       -1.85531
H         -1.06234       -1.19393       -3.17799
H         -0.71570       -3.01684       -1.51780
H         -1.04637       -1.86742       -0.16127
C         -2.77847       -2.38147       -1.33634
H          1.16832       -1.46400       -2.23256
H         -3.35032       -1.48304       -1.01858
H         -3.04738       -2.63429       -2.38425
H         -3.05287       -3.23087       -0.67752
C          0.54042        0.13402        3.03488
C         -0.25341        0.42696        4.12792
C         -1.43454        0.91030        3.63447
C         -1.31479        0.90045        2.25589
N         -0.09480        0.41090        1.87058
C         -2.43964        1.36026        1.36318
N         -2.83512        2.74441        1.71641
C         -4.04288        3.28296        1.03604
H         -0.00692        0.29822        5.17466
H          1.53649       -0.27702        3.09872
H         -2.29159        1.23262        4.22049
H         -2.11824        1.28837        0.30879
H         -3.28589        0.66830        1.55410
C         -5.30958        2.46254        1.37323
C         -4.28321        4.72593        1.53270
C         -3.83143        3.33616       -0.48769
H         -5.47572        2.43572        2.47237
H         -6.20633        2.92385        0.90281
H         -5.25046        1.42468        0.99248
H         -3.40706        5.37333        1.31708
H         -5.16944        5.17316        1.02640
H         -4.47383        4.74858        2.62759
H         -2.94887        3.96781       -0.72691
H         -3.67450        2.32445       -0.91074
H         -4.72233        3.77131       -0.98958
Mg         3.78184       -0.51456        1.50755
C          2.34889       -4.13321       -0.53573
C          3.21747       -4.39595       -1.57093
C          3.82624       -3.20246       -1.90333
C          3.34920       -2.24315       -1.09983
N          2.40064       -2.77376       -0.19769
C          3.74658       -0.80649       -1.20767
N          3.08035        0.06986       -0.21695
C          3.47474        1.50178       -0.33436
H          3.38205       -5.35785       -2.03969
H          1.70815       -4.86474       -0.05949
H          4.55913       -3.05687       -2.68869
H          3.50746       -0.49203       -2.24098
H          4.84566       -0.78212       -1.06345
C          3.06386        2.11860       -1.69226
C          2.75057        2.27030        0.77633
C          5.00309        1.68848       -0.14274
H          1.97054        2.04147       -1.84437
H          3.33795        3.19509       -1.72569
H          3.58522        1.64195       -2.54700
H          3.02363        1.86853        1.77452
H          3.01340        3.35106        0.74485
H          1.65123        2.18084        0.64569
H          5.34380        1.20740        0.79831
H          5.58144        1.26450       -0.99102
H          5.26383        2.76808       -0.10131

