%chk=speciation7.chk
%nprocshared=16
%mem=32GB
#p opt=loose PM7 scf=xqc 

 speciation study

-1 1
Mg         0.99692        0.39554       -0.14574
H          1.19503       -0.95011       -2.52157
C         -0.95244       -1.15137       -2.42630
C          0.43219       -1.10372       -1.73047
C         -1.28662        0.19918       -3.05037
H         -0.95706       -1.94287       -3.20188
H         -1.74426       -1.41936       -1.70985
H         -1.23300        0.98704       -2.27012
H         -0.55127        0.42278       -3.85290
C         -2.69706        0.20424       -3.63944
H          0.61305       -2.11602       -1.30951
H         -2.80782       -0.57479       -4.42326
H         -3.44038        0.01284       -2.84453
H         -2.90738        1.19717       -4.09013
C          0.15288       -3.25500        2.08367
C         -0.68287       -3.08621        1.00242
C         -1.09640       -1.77196        1.02808
C         -0.45981       -1.18402        2.08309
N          0.28690       -2.08867        2.75178
C         -0.56002        0.24863        2.45020
N         -0.40495        1.15753        1.28038
C         -0.68648        2.59443        1.65835
H         -0.95370       -3.83489        0.26752
H          0.66058       -4.16795        2.35878
H         -1.75400       -1.26192        0.35287
H          0.20251        0.45469        3.22613
H         -1.57421        0.32587        2.87479
C          0.41965        3.14997        2.57985
C         -0.75813        3.49826        0.41353
C         -2.06675        2.76539        2.36466
H          1.40874        3.06784        2.08287
H          0.23117        4.21961        2.82200
H          0.46086        2.60945        3.54664
H         -1.52931        3.14644       -0.30366
H         -1.02629        4.54150        0.70812
H          0.21414        3.58485       -0.08081
H         -2.88567        2.37082        1.72322
H         -2.11841        2.27909        3.35813
H         -2.27743        3.83859        2.56916
Mg         1.36631       -1.76578        4.34284
C          3.17340        2.88740       -4.13319
C          2.02835        3.16817       -3.41954
C          2.16154        2.56378       -2.18538
C          3.33289        1.95443       -2.13624
N          4.03975        2.10853       -3.34855
C          3.88496        1.25308       -0.93924
N          3.04805        0.10092       -0.54261
C          3.64375       -0.69348        0.56952
H          1.19324        3.76492       -3.76391
H          3.38603        3.22137       -5.13948
H          1.45915        2.58734       -1.38101
H          3.95182        1.99002       -0.11568
H          4.90353        0.91139       -1.20940
C          3.79978        0.17627        1.84291
C          2.67191       -1.81556        0.85563
C          4.99609       -1.35957        0.22100
H          2.85486        0.71482        2.06636
H          4.07053       -0.44757        2.72004
H          4.61614        0.91983        1.71876
H          2.59489       -2.51959        0.00197
H          2.95297       -2.38360        1.76910
H          1.70567       -1.33362        0.97638
H          4.88758       -2.02459       -0.66505
H          5.80181       -0.62757        0.02395
H          5.33948       -1.98691        1.07355

