%chk=speciation97.chk
%nprocshared=16
%mem=32GB
#p opt=loose PM7 scf=xqc 

 speciation study

-1 1
Mg         1.19151        0.14945       -0.30358
C          0.59355       -2.34338       -1.56413
C          0.35815       -0.58854       -3.09396
O          0.36540       -0.94528       -1.71376
C          1.96084       -2.84792       -2.05845
C          0.09555        0.89279       -3.28635
H          0.51596       -2.57826       -0.48510
H         -0.22398       -2.92359       -2.05016
H          1.31880       -0.80738       -3.60087
H         -0.46331       -1.12995       -3.61819
H          0.91950        1.48534       -2.84267
H          0.05441        1.11690       -4.37534
H         -0.87220        1.17429       -2.82699
H          2.78246       -2.29788       -1.56340
H          2.06333       -3.92692       -1.81742
H          2.06809       -2.76724       -3.16008
H          1.46289       -1.69507        1.65235
C         -0.46157       -0.98971        2.29277
C          0.90503       -0.73499        1.67524
C         -0.42741       -1.58210        3.72066
H         -0.99357       -0.02170        2.32690
H         -0.99603       -1.70943        1.63960
H         -1.47658       -1.76743        4.04143
H          0.11076       -2.55357        3.73035
C          0.19516       -0.64423        4.75238
H          1.42469       -0.00618        2.32264
H          1.26520       -0.45092        4.53208
H         -0.37291        0.30244        4.76415
H          0.12669       -1.08623        5.76809
C          1.02911        3.24023       -0.50102
C          0.16568        4.31692       -0.43814
C         -1.08434        3.80288       -0.20931
C         -0.93166        2.43260       -0.12504
N          0.37218        2.07284       -0.28981
C         -2.07277        1.47591        0.04006
N         -2.99858        1.89034        1.12146
C         -4.15086        0.97006        1.34772
H          0.41401        5.36357       -0.56507
H          2.08239        3.32990       -0.70834
H         -2.00647        4.36497       -0.12140
H         -2.60887        1.50001       -0.92641
H         -1.65210        0.46852        0.19700
C         -3.67772       -0.36985        1.92378
C         -5.11564        1.59870        2.36978
C         -4.94983        0.72046        0.04492
H         -3.13609       -0.19274        2.87501
H         -4.53588       -1.03851        2.13621
H         -3.03538       -0.90085        1.19848
H         -5.53152        2.55957        1.99970
H         -5.97274        0.90862        2.55194
H         -4.61179        1.77444        3.34345
H         -5.33087        1.67861       -0.37205
H         -4.34227        0.20917       -0.72937
H         -5.81851        0.05667        0.24367
Mg        -1.90828        2.44391        2.67934
C          3.91128        0.40021        0.64133
C          3.67518        0.54483       -1.72428
O          3.12861        0.07111       -0.50354
C          4.11921        1.89214        0.88038
C          5.02288       -0.10515       -2.07083
H          3.40546       -0.00772        1.52693
H          4.87503       -0.14914        0.64203
H          2.98605        0.25222       -2.53337
H          3.73662        1.65058       -1.75027
H          4.92752       -1.21138       -2.09622
H          5.35798        0.24499       -3.06932
H          5.81067        0.17476       -1.34224
H          3.14304        2.39860        0.92241
H          4.61596        2.04628        1.85947
H          4.76711        2.33627        0.09686
C          0.54408        2.65033        4.30151
C          1.04800        2.97680        5.54537
C         -0.01103        3.45596        6.28344
C         -1.11718        3.40394        5.45602
N         -0.77563        2.89093        4.25329
C         -2.49214        3.84925        5.84689
N         -2.43207        5.26564        6.24835
C         -3.68376        5.86857        6.76137
H          2.07180        2.86810        5.87981
H          1.11623        2.23099        3.48543
H          0.02107        3.80129        7.30871
H         -3.16741        3.71135        4.97845
H         -2.81845        3.21019        6.68931
C         -4.18722        5.14326        8.02794
C         -3.36602        7.32888        7.13676
C         -4.78702        5.87839        5.68416
H         -3.39644        5.13358        8.80908
H         -5.07864        5.66263        8.44264
H         -4.49096        4.09966        7.81235
H         -2.93413        7.86776        6.26531
H         -4.28382        7.86879        7.45798
H         -2.62767        7.37321        7.96668
H         -4.46779        6.47508        4.80301
H         -5.04513        4.85391        5.35056
H         -5.71638        6.33192        6.09349

