%chk=speciation102.chk
%nprocshared=16
%mem=32GB
#p opt=loose PM7 scf=xqc 

 speciation study

-1 1
Mg         1.18186       -0.48884        0.14599
C          4.08343       -1.31706       -0.49574
C          3.45867       -1.04711        1.75674
O          3.19838       -0.65731        0.40617
C          3.93778       -2.84583       -0.55711
C          4.89956       -0.78126        2.24536
H          3.96932       -0.84125       -1.46572
H          5.14343       -1.05336       -0.30637
H          2.80916       -0.43554        2.40881
H          3.18379       -2.10807        1.93340
H          5.17281        0.28316        2.08828
H          4.97837       -1.01695        3.32698
H          5.64441       -1.43241        1.73991
H          2.89324       -3.14001       -0.74878
H          4.57637       -3.24967       -1.37133
H          4.28073       -3.31855        0.38809
H         -0.78536       -2.27811        0.48165
C          0.32375       -3.52924        1.82532
C          0.28045       -2.49990        0.68237
C         -0.28698       -3.06662        3.14210
H         -0.26649       -4.41581        1.49182
H          1.36813       -3.87335        1.98986
H         -1.33446       -2.73186        2.97579
H         -0.30611       -3.93051        3.84311
C          0.54243       -1.96744        3.77759
H          0.66264       -3.13085       -0.11390
H          1.57624       -2.32477        3.96211
H          0.59533       -1.10834        3.10171
H          0.08023       -1.65082        4.73358
C          1.32925        4.70861       -0.81382
C         -0.04178        4.57722       -0.84823
C         -0.33037        3.33658       -1.39535
C          0.82239        2.72570       -1.65940
N          1.92187        3.54028       -1.30820
C          1.01145        1.44459       -2.39827
N          0.40874        0.17269       -1.89536
C          0.57745       -0.84843       -3.05218
H         -0.75132        5.32676       -0.52981
H          1.87892        5.57210       -0.46556
H         -1.31520        2.95601       -1.61121
H          2.10993        1.31942       -2.47687
H          0.61629        1.69325       -3.39707
C          2.00514       -0.94534       -3.67233
C          0.24267       -2.26705       -2.60239
C         -0.37037       -0.57026       -4.25291
H          2.72074       -1.27538       -2.93236
H          2.04920       -1.73194       -4.45822
H          2.34984       -0.01469       -4.16558
H         -0.75833       -2.33238       -2.13854
H          0.27160       -2.98348       -3.45605
H          1.05436       -2.60615       -1.96270
H         -1.42764       -0.60866       -3.94451
H         -0.15789        0.37144       -4.79124
H         -0.23685       -1.35411       -5.03562
Mg        -1.58126        0.17269       -1.89536
C         -0.69445        0.86412        2.03573
C          1.35463        2.01806        1.62557
O          0.65533        0.78010        1.58158
C         -1.57630        1.87502        1.30886
C          1.52935        2.59805        3.03703
H         -1.15103       -0.13374        1.89962
H         -0.72669        1.04011        3.13336
H          2.37286        1.84435        1.22198
H          0.88085        2.77063        0.98718
H          2.05119        1.87893        3.70056
H          2.13406        3.52970        2.97538
H          0.55372        2.87844        3.48651
H         -1.56956        1.64214        0.23056
H         -2.61624        1.79567        1.68479
H         -1.25040        2.91886        1.49944
C         -1.88342        2.70253       -4.97648
C         -2.74932        2.33868       -5.98832
C         -3.64126        1.43453       -5.44833
C         -3.33177        1.23910       -4.16706
N         -2.21941        2.02069       -3.79277
C         -4.09121        0.28758       -3.28030
N         -3.57126        0.17269       -1.89536
C         -4.27071       -0.87713       -1.08332
H         -2.72450        2.69314       -7.00808
H         -1.05490        3.38598       -5.08672
H         -4.44711        0.94104       -5.98196
H         -4.03391       -0.68589       -3.79574
H         -5.14133        0.64416       -3.26813
C         -3.99060       -2.30126       -1.62034
C         -3.75892       -0.81231        0.36202
C         -5.79891       -0.63478       -1.04204
H         -2.91876       -2.56138       -1.52577
H         -4.56983       -3.05455       -1.03972
H         -4.29381       -2.45196       -2.67748
H         -4.01825        0.15520        0.82213
H         -4.22897       -1.62226        0.96870
H         -2.66715       -0.95545        0.37946
H         -6.02019        0.37651       -0.64208
H         -6.27895       -0.74076       -2.03912
H         -6.29466       -1.38202       -0.38266

