%chk=speciation78.chk
%nprocshared=16
%mem=32GB
#p opt=loose PM7 scf=xqc 

 speciation study

-1 1
Mg         1.57822        1.46024        0.25481
C          3.39701        3.78107        0.48304
C          1.10212        4.12632        1.07652
O          2.05274        3.31149        0.39635
C          4.02827        3.75758        1.89854
C          0.95615        5.53724        0.48465
H          4.03557        3.20784       -0.22582
H          3.46087        4.79485        0.05329
H          0.10863        3.64039        0.98088
H          1.29965        4.18214        2.16199
H          0.64868        5.48419       -0.58058
H          0.18579        6.09828        1.05425
H          1.89132        6.12628        0.56884
H          3.31344        3.97802        2.70667
H          4.85628        4.48785        1.93409
H          4.50723        2.81084        2.18062
H          1.50847        1.19762       -2.88562
C          3.26306        2.14937       -3.70942
C          2.50119        1.55180       -2.53410
C          3.46057        1.07836       -4.77544
H          2.69136        3.00521       -4.14167
H          4.23931        2.53128       -3.34558
H          3.98099        0.20886       -4.32171
H          2.46542        0.75063       -5.15088
C          4.28687        1.59174       -5.94646
H          2.30373        2.37214       -1.82057
H          3.78493        2.45360       -6.43519
H          5.29065        1.90424       -5.59498
H          4.40733        0.77541       -6.68868
C         -1.44338        0.98683        0.01523
C         -2.19695       -0.15256       -0.13592
C         -1.31286       -1.21482       -0.20071
C         -0.05758       -0.66981       -0.07883
N         -0.13389        0.65431        0.05290
C          1.25725       -1.38100       -0.08051
N          2.36905       -0.41131        0.09849
C          3.15145       -0.56462        1.34283
H         -3.27559       -0.21131       -0.20176
H         -1.81358        1.99784        0.10038
H         -1.56180       -2.26099       -0.32007
H          1.38914       -1.91709       -1.04289
H          1.21084       -2.12953        0.73342
C          3.81764       -1.94364        1.54771
C          4.25967        0.44195        1.21969
C          2.27311       -0.23666        2.57051
H          4.57296       -2.13949        0.77908
H          4.37801       -1.94185        2.50739
H          3.09666       -2.77985        1.58714
H          3.73650        1.36591        0.99408
H          4.87506        0.51127        2.14050
H          4.91422        0.23660        0.34844
H          1.78337        0.75566        2.45658
H          1.48215       -1.00076        2.72053
H          2.89128       -0.21056        3.49493
Mg         3.55486       -0.06028       -1.49433
C          4.84853       -2.55839       -1.62050
C          5.94132       -3.36471       -1.83705
C          6.93208       -2.55361       -2.32607
C          6.40144       -1.27145       -2.38774
N          5.11798       -1.26963       -1.91207
C          7.18214       -0.10133       -2.94937
N          7.46546        0.97228       -1.98063
C          8.27733        2.09347       -2.54794
H          6.00345       -4.43204       -1.66277
H          3.89820       -2.89690       -1.23828
H          7.92541       -2.86660       -2.60992
H          8.14154       -0.52175       -3.31563
H          6.59434        0.27004       -3.80102
C          7.55541        2.76300       -3.73677
C          8.46765        3.15391       -1.44904
C          9.68808        1.63480       -3.00147
H          6.54340        3.09814       -3.43146
H          8.12435        3.64608       -4.09726
H          7.46938        2.07638       -4.60264
H          9.02859        2.73293       -0.58764
H          9.04648        4.02212       -1.84011
H          7.48726        3.52770       -1.08802
H         10.24608        1.17339       -2.15899
H          9.65094        0.91626       -3.84429
H         10.27705        2.50524       -3.36874

