%chk=speciation23.chk
%nprocshared=16
%mem=32GB
#p opt=loose PM7 scf=xqc 

 speciation study

-1 1
Mg         0.30806        1.02451        0.10235
H          1.71357        3.22847       -0.91953
C          0.05426        4.16692        0.05793
C          0.64155        3.01110       -0.74244
C          0.77374        4.32973        1.39443
H          0.16443        5.10819       -0.52928
H         -1.02658        3.97957        0.22362
H          0.70410        3.38820        1.97422
H          1.84913        4.56315        1.20809
C          0.15296        5.46117        2.20786
H          0.15278        3.01730       -1.73804
H          0.20972        6.42174        1.64805
H         -0.91108        5.23442        2.42781
H          0.70103        5.57509        3.16496
C         -5.36165       -0.59612        2.64960
C         -4.44815       -1.62697        2.68789
C         -3.21891       -1.11271        2.30519
C         -3.38420        0.18550        2.03024
N         -4.72125        0.59096        2.24432
C         -2.31943        1.12263        1.53523
N         -1.69993        0.64184        0.28208
C         -2.46473        0.62503       -0.98404
H         -4.67179       -2.65573        2.95381
H         -6.41401       -0.67539        2.87744
H         -2.30351       -1.67868        2.20954
H         -1.54507        1.22399        2.31576
H         -2.72507        2.14431        1.40874
C         -3.09411        2.00185       -1.27829
C         -1.48274        0.26570       -2.11028
C         -3.56227       -0.45742       -0.96623
H         -2.31408        2.78763       -1.32571
H         -3.63083        1.98627       -2.24962
H         -3.83506        2.28282       -0.50061
H         -1.01123       -0.72198       -1.91439
H         -2.00495        0.22138       -3.08891
H         -0.67432        1.01272       -2.19021
H         -3.12201       -1.44999       -0.72885
H         -4.36207       -0.23177       -0.23970
H         -4.06007       -0.51932       -1.95638
Mg        -0.01794       -0.19992        0.24344
C          2.05590       -0.37938       -3.80088
C          2.45409        0.86315       -3.35721
C          2.71205        0.75277       -1.99980
C          2.45801       -0.49915       -1.62991
N          2.03750       -1.28156       -2.72658
C          2.62533       -1.05167       -0.25029
N          1.78901       -0.33485        0.72999
C          1.79070       -0.89004        2.11134
H          2.55687        1.74728       -3.96826
H          1.79449       -0.63334       -4.81890
H          3.06726        1.53446       -1.34735
H          3.69487       -0.95678        0.03362
H          2.35648       -2.12364       -0.30729
C          3.11894       -0.55379        2.80789
C          0.65212       -0.23329        2.88772
C          1.54768       -2.42378        2.15718
H          3.28234        0.54495        2.80492
H          3.10261       -0.90663        3.86196
H          3.97331       -1.04466        2.30006
H         -0.30347       -0.54313        2.42936
H          0.63455       -0.57141        3.94681
H          0.74432        0.87203        2.86386
H          0.58972       -2.68960        1.65829
H          2.37149       -2.99595        1.68494
H          1.49201       -2.77324        3.21166

