%chk=speciation105.chk
%nprocshared=16
%mem=32GB
#p opt=loose PM7 scf=xqc 

 speciation study

-1 1
Mg         1.15277        0.10069       -0.25138
C         -0.15220       -2.49677       -0.16556
C          0.59412       -1.78960       -2.31192
O          0.14225       -1.39577       -1.01546
C          0.90153       -3.61317       -0.07742
C         -0.52398       -2.37804       -3.18447
H         -0.28823       -2.07854        0.84060
H         -1.13890       -2.92904       -0.43914
H          0.99240       -0.89539       -2.82554
H          1.45046       -2.48166       -2.27455
H         -1.33073       -1.63472       -3.35000
H         -0.10682       -2.67376       -4.17193
H         -0.95766       -3.28980       -2.72409
H          1.88932       -3.20012        0.19970
H          0.58932       -4.34379        0.69678
H          0.98251       -4.18098       -1.02923
H          3.88376        0.24067        0.09757
C          4.09572       -1.05391       -1.54585
C          3.29766       -0.58212       -0.31940
C          4.26734        0.06606       -2.56386
H          5.10824       -1.37182       -1.20395
H          3.60574       -1.92987       -2.01170
H          3.26913        0.33591       -2.93295
H          4.76368        0.93470       -2.07554
C          5.10082       -0.34360       -3.76933
H          3.35296       -1.43067        0.38338
H          6.11969       -0.65292       -3.45578
H          4.60431       -1.17443       -4.31173
H          5.18928        0.52709       -4.45533
C         -0.94161        4.51835        1.90349
C         -2.31797        4.36031        1.90603
C         -2.55371        3.00212        1.94167
C         -1.30979        2.38706        1.93564
N         -0.34395        3.30875        1.94033
C         -1.01239        0.92491        1.95609
N          0.46441        0.63454        1.89757
C          0.90467       -0.03408        3.19852
H         -3.04633        5.15357        1.91542
H         -0.42056        5.46609        1.90008
H         -3.52835        2.52198        1.98201
H         -1.52435        0.40771        1.12142
H         -1.50069        0.58900        2.88942
C          0.10296       -1.29400        3.67051
C          2.34090       -0.51304        3.05365
C          0.86985        0.98853        4.37291
H          0.14643       -2.12494        2.95012
H          0.55958       -1.68546        4.61391
H         -0.94804       -1.10300        3.95577
H          3.00187        0.33199        2.87923
H          2.71216       -1.01405        3.97499
H          2.38487       -1.24782        2.23779
H          1.45002        1.90210        4.13575
H         -0.16468        1.29539        4.63123
H          1.31563        0.55193        5.29768
Mg         1.38737        2.46667        2.10930
C          1.87253        2.40560       -2.34644
C         -0.40928        1.70296       -2.20169
O          0.89381        1.59601       -1.65301
C          1.56898        3.91070       -2.38080
C         -0.52004        1.50690       -3.74187
H          2.84943        2.30967       -1.84072
H          2.01574        2.05286       -3.39643
H         -1.02004        0.89840       -1.74710
H         -0.87397        2.66453       -1.91209
H         -0.10364        0.54046       -4.07995
H         -1.58767        1.52489       -4.03105
H         -0.02465        2.31295       -4.32134
H          1.51473        4.31537       -1.35303
H          2.37275        4.44313       -2.93768
H          0.62022        4.13080       -2.91406
C          7.74463        2.82954        3.05307
C          7.10582        2.26049        4.13852
C          5.78056        2.07488        3.79018
C          5.61582        2.53561        2.54781
N          6.82546        3.01906        2.01118
C          4.31697        2.57784        1.80471
N          3.23751        3.18956        2.59470
C          3.30110        4.65371        2.84832
H          7.56756        2.02093        5.08693
H          8.78521        3.10502        3.00988
H          5.00270        1.66713        4.42460
H          4.05019        1.54519        1.64713
H          4.41207        3.02808        0.79769
C          3.24302        5.45044        1.52974
C          2.10237        5.00605        3.73433
C          4.55499        5.07776        3.64475
H          2.33850        5.18746        0.94376
H          3.23201        6.54191        1.73756
H          4.14191        5.25017        0.90770
H          2.15852        4.46464        4.70367
H          2.04820        6.09822        3.93061
H          1.17721        4.69705        3.25405
H          4.63045        4.49091        4.58567
H          5.48390        4.97125        3.05884
H          4.49657        6.15222        3.91559

