%chk=lowest10_c1_a2_speciation7_speciationDFT0_speciationDFT38_rank04_E220.11.chk
%nprocshared=20
%mem=40GB
#p opt=loose PM7/gen scf=xqc 

lowest10_c1_a2_speciation7_speciationDFT0_speciationDFT38_rank04_E220.11 DFT input

0 1
Mg      0.066880000000000      0.905590000000000     -0.380290000000000
C       1.785320000000000     -1.531130000000000      1.049020000000000
C       0.246100000000000     -0.583860000000000      2.616930000000000
O       0.919990000000000     -0.459610000000000      1.382480000000000
C       1.176160000000000     -2.929010000000000      1.179480000000000
C       1.188220000000000     -0.487260000000000      3.807410000000000
H       2.031350000000000     -1.401110000000000     -0.023290000000000
H       2.743930000000000     -1.451260000000000      1.600660000000000
H      -0.458240000000000      0.267470000000000      2.682330000000000
H      -0.399240000000000     -1.483440000000000      2.656480000000000
H       0.589560000000000     -0.468000000000000      4.741610000000000
H       1.789860000000000      0.442870000000000      3.742460000000000
H       1.865480000000000     -1.363280000000000      3.832940000000000
H       0.218160000000000     -2.989400000000000      0.634090000000000
H       1.016510000000000     -3.188930000000000      2.244720000000000
H       1.868220000000000     -3.675210000000000      0.740020000000000
H       1.518000000000000      2.959520000000000      0.521800000000000
C      -0.535120000000000      3.724060000000000      0.607710000000000
C       0.593460000000000      2.946310000000000     -0.089730000000000
C      -0.997920000000000      3.143200000000000      1.958760000000000
H      -0.198510000000000      4.770860000000000      0.758580000000000
H      -1.419330000000000      3.732360000000000     -0.065090000000000
H      -1.810480000000000      3.792260000000000      2.356410000000000
H      -1.426980000000000      2.132310000000000      1.805970000000000
C       0.106050000000000      3.079170000000000      3.014070000000000
H       0.805090000000000      3.390520000000000     -1.081660000000000
H       0.917740000000000      2.401000000000000      2.687390000000000
H       0.524840000000000      4.089120000000000      3.203490000000000
H      -0.310700000000000      2.683620000000000      3.966460000000000
C      -2.802210000000000     -1.324760000000000      1.072670000000000
C      -3.049000000000000     -0.062330000000000      0.564000000000000
C      -2.361350000000000      0.021490000000000     -0.631120000000000
C      -1.726530000000000     -1.135640000000000     -0.784000000000000
N      -2.030070000000000     -1.985440000000000      0.294520000000000
C      -0.780070000000000     -1.485700000000000     -1.903190000000000
N       0.342160000000000     -0.538150000000000     -1.885600000000000
C       1.327100000000000     -0.561800000000000     -2.994220000000000
H      -3.632860000000000      0.720140000000000      1.031010000000000
H      -3.182820000000000     -1.719050000000000      2.004060000000000
H      -2.304050000000000      0.878920000000000     -1.289490000000000
H      -1.332470000000000     -1.441430000000000     -2.860600000000000
H      -0.400700000000000     -2.515940000000000     -1.737650000000000
C       0.672980000000000     -0.114040000000000     -4.316120000000000
C       2.471910000000000      0.408010000000000     -2.657370000000000
C       1.924300000000000     -1.978160000000000     -3.172530000000000
H       0.261630000000000      0.912210000000000     -4.218790000000000
H       1.419310000000000     -0.119980000000000     -5.141050000000000
H      -0.145320000000000     -0.798820000000000     -4.617320000000000
H       2.992030000000000      0.098100000000000     -1.726620000000000
H       3.222040000000000      0.430620000000000     -3.479910000000000
H       2.080380000000000      1.437120000000000     -2.515910000000000
H       2.407460000000000     -2.323880000000000     -2.234020000000000
H       1.144890000000000     -2.714960000000000     -3.458110000000000
H       2.693470000000000     -1.983810000000000     -3.976160000000000
Na     -1.866650000000000     -8.088480000000001      2.398220000000000
C       0.108140000000000    -10.377150000000000      1.360450000000000
C      -1.274400000000000    -11.433430000000000      2.934290000000000
O      -0.614700000000000    -10.236190000000001      2.568380000000000
C      -0.768450000000000    -10.033110000000001      0.160490000000000
C      -0.383420000000000    -12.307140000000000      3.813480000000000
H       0.958170000000000     -9.662830000000000      1.387310000000000
H       0.559180000000000    -11.388339999999999      1.243760000000000
H      -2.179120000000000    -11.156829999999999      3.516790000000000
H      -1.636870000000000    -12.009600000000001      2.054040000000000
H      -0.092140000000000    -11.762330000000000      4.735250000000000
H      -0.938920000000000    -13.222149999999999      4.105950000000000
H       0.533070000000000    -12.608449999999999      3.265540000000000
H      -1.153490000000000     -8.996020000000000      0.251920000000000
H      -0.169790000000000    -10.111380000000000     -0.770720000000000
H      -1.626270000000000    -10.732460000000000      0.090190000000000
C      -4.619870000000000     -9.719210000000000      1.322900000000000
C      -5.088410000000000     -7.433750000000000      1.810410000000000
O      -4.169020000000000     -8.508039999999999      1.903170000000000
C      -4.854170000000000     -9.630830000000000     -0.185880000000000
C      -6.390840000000000     -7.677250000000000      2.572380000000000
H      -3.809000000000000    -10.461610000000000      1.477070000000000
H      -5.501600000000000    -10.129030000000000      1.856780000000000
H      -4.597440000000000     -6.557790000000000      2.286210000000000
H      -5.271880000000000     -7.133160000000000      0.758220000000000
H      -6.167270000000000     -7.949180000000000      3.624810000000000
H      -7.001320000000000     -6.750230000000000      2.560690000000000
H      -6.988480000000000     -8.480029999999999      2.095330000000000
H      -3.943810000000000     -9.246890000000000     -0.692570000000000
H      -5.085150000000000    -10.643170000000000     -0.578770000000000
H      -5.717610000000000     -8.975690000000000     -0.419080000000000
Na      0.590790000000000     -9.528140000000000      4.519260000000000
C      -0.330190000000000     -6.328410000000000      4.310300000000000
C      -1.758090000000000     -7.579440000000000      5.680280000000000
O      -0.884540000000000     -7.601860000000000      4.569460000000000
C       0.854080000000000     -6.495470000000000      3.366480000000000
C      -3.133230000000000     -7.026570000000000      5.312070000000000
H      -1.079800000000000     -5.679460000000000      3.808730000000000
H       0.050080000000000     -5.839180000000000      5.235110000000000
H      -1.894320000000000     -8.631320000000001      6.011810000000000
H      -1.322440000000000     -7.038610000000000      6.549440000000000
H      -3.571760000000000     -7.617880000000000      4.482040000000000
H      -3.806110000000000     -7.094270000000000      6.192530000000000
H      -3.062120000000000     -5.962390000000000      5.007680000000000
H       0.528090000000000     -6.981420000000000      2.422020000000000
H       1.290700000000000     -5.503880000000000      3.127510000000000
H       1.636580000000000     -7.122730000000000      3.841960000000000
C       3.091540000000000     -8.704200000000000      6.535620000000000
C       3.952780000000000     -9.585450000000000      4.575990000000000
O       2.788320000000000     -9.154360000000000      5.237450000000000
C       1.791690000000000     -8.282349999999999      7.207450000000000
C       3.563010000000000    -10.031240000000000      3.173140000000000
H       3.545160000000000     -9.518820000000000      7.144240000000000
H       3.763830000000000     -7.817870000000000      6.497280000000000
H       4.686300000000000     -8.753280000000000      4.481540000000000
H       4.407290000000000    -10.455170000000001      5.101880000000000
H       3.105170000000000     -9.182600000000001      2.621200000000000
H       4.459420000000000    -10.379440000000001      2.619250000000000
H       2.826640000000000    -10.862200000000000      3.228070000000000
H       1.092720000000000     -9.144780000000001      7.262610000000000
H       1.992790000000000     -7.913430000000000      8.234439999999999
H       1.311430000000000     -7.470710000000000      6.622640000000000
Mg     -4.872820000000000    -10.637660000000000      7.662510000000000
H      -3.260370000000000     -9.421320000000000     10.110360000000000
C      -5.159540000000000     -9.859900000000000     11.109330000000000
C      -4.347610000000000     -9.444540000000000      9.893010000000000
C      -4.774480000000000    -11.249390000000000     11.635570000000000
H      -4.984760000000000     -9.110099999999999     11.908980000000000
H      -6.239750000000000     -9.849990000000000     10.850669999999999
H      -3.696430000000000    -11.268879999999999     11.906580000000000
H      -5.369030000000000    -11.438290000000000     12.554340000000000
C      -5.069770000000000    -12.375930000000000     10.643179999999999
H      -4.682870000000000     -8.451430000000000      9.523930000000000
H      -4.439800000000000    -12.280460000000000      9.735889999999999
H      -4.844460000000000    -13.353040000000000     11.122400000000001
H      -6.141570000000000    -12.368140000000000     10.350630000000001
C      -2.834610000000000    -12.992520000000001      7.032120000000000
C      -2.943380000000000    -14.114390000000000      6.226930000000000
C      -4.213510000000000    -14.092090000000001      5.670970000000000
C      -4.831850000000000    -12.970039999999999      6.177320000000000
N      -3.989080000000000    -12.308410000000000      6.981480000000000
C      -6.242770000000000    -12.482960000000000      5.904830000000000
N      -6.579230000000000    -11.390840000000001      6.842820000000000
C      -7.911350000000000    -10.761189999999999      6.830180000000000
H      -2.182100000000000    -14.864269999999999      6.059470000000000
H      -1.969090000000000    -12.698359999999999      7.611200000000000
H      -4.640070000000000    -14.815899999999999      4.990270000000000
H      -6.288710000000000    -12.136670000000001      4.851540000000000
H      -6.939420000000000    -13.327959999999999      6.061230000000000
C      -8.979860000000000    -11.795830000000000      7.235190000000000
C      -7.922510000000000     -9.621510000000001      7.864440000000000
C      -8.232180000000000    -10.179819999999999      5.442330000000000
H      -8.748849999999999    -12.212000000000000      8.240629999999999
H      -9.987209999999999    -11.328939999999999      7.271950000000000
H      -9.026260000000001    -12.635050000000000      6.512140000000000
H      -7.167240000000000     -8.848160000000000      7.607770000000000
H      -8.922300000000000     -9.134100000000000      7.900120000000000
H      -7.692820000000000    -10.011250000000000      8.878740000000001
H      -7.463850000000000     -9.433350000000001      5.151140000000000
H      -8.264480000000001    -10.978289999999999      4.672840000000000
H      -9.225690000000000     -9.681480000000001      5.450530000000000

-C 0
6-31g(d,p)
****
-H 0
6-31g(d,p)
****
-Mg 0
6-31g(d,p)
****
-N 0
6-31+g(d,p)
****
-Na 0
6-31g(d,p)
****
-O 0
6-31+g(d,p)
****


