%chk=lowest10_c1_a2_speciation0_speciationDFT37b_speciationDFT96_rank03_E168.87.chk
%nprocshared=20
%mem=40GB
#p opt=loose PM7/gen scf=xqc 

lowest10_c1_a2_speciation0_speciationDFT37b_speciationDFT96_rank03_E168.87 DFT input

0 1
Mg     -0.140540000000000     -0.230890000000000     -0.380600000000000
C      -2.417760000000000      2.045420000000000      1.011830000000000
C      -1.642820000000000      0.393620000000000      2.548600000000000
O      -1.452570000000000      1.053860000000000      1.311540000000000
C      -2.381390000000000      3.242540000000000      1.957140000000000
C      -2.933780000000000     -0.418000000000000      2.616210000000000
H      -2.172230000000000      2.421530000000000     -0.004780000000000
H      -3.439720000000000      1.627460000000000      0.937540000000000
H      -0.812180000000000     -0.333130000000000      2.648260000000000
H      -1.530220000000000      1.083080000000000      3.408160000000000
H      -3.007080000000000     -1.094220000000000      1.739460000000000
H      -2.930010000000000     -1.030240000000000      3.542010000000000
H      -3.817560000000000      0.248940000000000      2.649880000000000
H      -1.359130000000000      3.667940000000000      2.009560000000000
H      -3.073920000000000      4.022290000000000      1.576300000000000
H      -2.716370000000000      2.950520000000000      2.971860000000000
H      -2.132560000000000      0.770200000000000     -2.348740000000000
C      -3.373350000000000     -0.745020000000000     -1.358560000000000
C      -2.063030000000000     -0.258450000000000     -1.938610000000000
C      -4.417320000000000     -0.818320000000000     -2.459870000000000
H      -3.228430000000000     -1.747160000000000     -0.904910000000000
H      -3.703810000000000     -0.046440000000000     -0.565420000000000
H      -4.547480000000000      0.191330000000000     -2.907010000000000
H      -4.067680000000000     -1.522200000000000     -3.246280000000000
C      -5.749520000000000     -1.299860000000000     -1.908340000000000
H      -1.642190000000000     -0.973230000000000     -2.675800000000000
H      -5.637040000000000     -2.313010000000000     -1.466550000000000
H      -6.116920000000000     -0.598280000000000     -1.129070000000000
H      -6.487670000000000     -1.343880000000000     -2.734420000000000
C       4.651720000000000      0.772160000000000     -0.623140000000000
C       4.865730000000000     -0.558760000000000     -0.877310000000000
C       3.948700000000000     -1.284470000000000     -0.126200000000000
C       3.183960000000000     -0.418500000000000      0.552590000000000
N       3.599040000000000      0.898320000000000      0.290980000000000
C       2.069090000000000     -0.715890000000000      1.536020000000000
N       0.847050000000000     -1.324330000000000      0.981260000000000
C       0.682230000000000     -2.755150000000000      0.685350000000000
H       5.623140000000000     -0.950050000000000     -1.543880000000000
H       5.196190000000000      1.604730000000000     -1.047580000000000
H       3.895020000000000     -2.357970000000000     -0.100740000000000
H       1.749320000000000      0.269570000000000      1.940330000000000
H       2.449440000000000     -1.288670000000000      2.399730000000000
C       1.549250000000000     -3.616180000000000      1.607700000000000
C      -0.797560000000000     -3.104070000000000      0.937740000000000
C       0.973560000000000     -3.032900000000000     -0.803780000000000
H       1.300970000000000     -3.385270000000000      2.666870000000000
H       1.365050000000000     -4.693130000000000      1.421760000000000
H       2.622810000000000     -3.411920000000000      1.441110000000000
H      -1.456430000000000     -2.485470000000000      0.295500000000000
H      -1.003570000000000     -4.172100000000000      0.709340000000000
H      -1.078080000000000     -2.906480000000000      1.994160000000000
H       0.266890000000000     -2.476170000000000     -1.458830000000000
H       1.988360000000000     -2.731240000000000     -1.098140000000000
H       0.858370000000000     -4.115480000000000     -1.024920000000000
C       1.486840000000000      1.958410000000000     -1.970860000000000
C       1.047790000000000      2.811270000000000      0.185560000000000
O       0.635230000000000      1.932090000000000     -0.842070000000000
C       1.605960000000000      0.554130000000000     -2.567500000000000
C       0.683370000000000      4.244770000000000     -0.139710000000000
H       1.037400000000000      2.625580000000000     -2.733560000000000
H       2.514440000000000      2.312510000000000     -1.739020000000000
H       0.533250000000000      2.511450000000000      1.120180000000000
H       2.122500000000000      2.740440000000000      0.420420000000000
H      -0.406470000000000      4.322140000000000     -0.330200000000000
H       0.959070000000000      4.891290000000000      0.718820000000000
H       1.245790000000000      4.572660000000000     -1.037190000000000
H       2.057670000000000     -0.150330000000000     -1.845500000000000
H       0.611390000000000      0.156610000000000     -2.853110000000000
H       2.249130000000000      0.581750000000000     -3.471020000000000
Na      7.927850000000000      0.420330000000000     10.762210000000000
C       5.519330000000000     -1.792270000000000     11.068720000000001
C       4.931310000000000      0.183920000000000     12.094930000000000
O       5.939160000000000     -0.796650000000000     11.977220000000001
C       6.604010000000000     -2.854570000000000     10.959820000000001
C       5.391490000000000      1.261100000000000     13.066179999999999
H       4.589610000000000     -2.290900000000000     11.427149999999999
H       5.362950000000000     -1.360000000000000     10.054119999999999
H       4.735850000000000      0.671910000000000     11.112620000000000
H       3.998830000000000     -0.261420000000000     12.505810000000000
H       6.322740000000000      1.739030000000000     12.694800000000001
H       4.603410000000000      2.037670000000000     13.165100000000001
H       5.584560000000000      0.816540000000000     14.065650000000000
H       6.784200000000000     -3.320170000000000     11.952130000000000
H       6.287150000000000     -3.643510000000000     10.245270000000000
H       7.549670000000000     -2.399310000000000     10.595860000000000
Na      5.879030000000000     -2.017850000000000     14.317140000000000
Mg     -0.330060000000000     -0.712130000000000     10.266040000000000
C       0.645330000000000     -1.579710000000000      7.318960000000000
C       0.437460000000000      0.786010000000000      7.508230000000000
O      -0.103670000000000     -0.483860000000000      7.811950000000000
C       2.072990000000000     -1.659040000000000      7.862600000000000
C       0.282680000000000      1.137400000000000      6.035390000000000
H       0.123970000000000     -2.489920000000000      7.673950000000000
H       0.614150000000000     -1.637670000000000      6.212530000000000
H      -0.148870000000000      1.528120000000000      8.092470000000000
H       1.482330000000000      0.905010000000000      7.859560000000000
H      -0.781120000000000      1.026590000000000      5.739670000000000
H       0.599620000000000      2.188240000000000      5.872410000000000
H       0.916590000000000      0.478770000000000      5.408360000000000
H       2.074240000000000     -1.547160000000000      8.964470000000000
H       2.509890000000000     -2.645160000000000      7.600420000000000
H       2.712640000000000     -0.874310000000000      7.413280000000000
H       1.763630000000000     -0.272100000000000     11.783620000000001
C       0.555620000000000      1.531510000000000     11.910480000000000
C       1.209370000000000      0.417730000000000     11.117500000000000
C      -0.476520000000000      0.954810000000000     12.885249999999999
H       1.352490000000000      2.078500000000000     12.454829999999999
H       0.040860000000000      2.227760000000000     11.211639999999999
H      -1.307420000000000      0.488110000000000     12.313800000000001
H      -0.009900000000000      0.174720000000000     13.523800000000000
C      -1.037340000000000      2.044650000000000     13.789380000000000
H       1.887890000000000      0.823500000000000     10.339610000000000
H      -0.216020000000000      2.479830000000000     14.397970000000001
H      -1.513950000000000      2.847150000000000     13.187690000000000
H      -1.794410000000000      1.608730000000000     14.474480000000000
C      -3.971310000000000     -0.167270000000000     11.535800000000000
C      -3.466240000000000      0.452580000000000     10.412960000000000
C      -2.887380000000000     -0.530720000000000      9.631779999999999
C      -3.016860000000000     -1.701650000000000     10.257330000000000
N      -3.725390000000000     -1.543090000000000     11.472320000000000
C      -2.512130000000000     -3.034310000000000      9.780659999999999
N      -1.037960000000000     -3.098090000000000      9.815680000000000
C      -0.414720000000000     -3.819810000000000     10.952769999999999
H      -3.511230000000000      1.511710000000000     10.202629999999999
H      -4.478450000000000      0.327020000000000     12.353800000000000
H      -2.403400000000000     -0.367560000000000      8.677540000000000
H      -2.855240000000000     -3.192480000000000      8.735590000000000
H      -2.969260000000000     -3.824550000000000     10.396409999999999
C      -0.781570000000000     -5.318100000000000     10.918900000000001
C       1.115190000000000     -3.707530000000000     10.801010000000000
C      -0.803580000000000     -3.199080000000000     12.311560000000000
H      -0.518810000000000     -5.752460000000000      9.930730000000001
H      -0.226790000000000     -5.871110000000000     11.706849999999999
H      -1.857550000000000     -5.495120000000000     11.107100000000001
H       1.438870000000000     -2.648870000000000     10.862190000000000
H       1.639080000000000     -4.263170000000000     11.610189999999999
H       1.445820000000000     -4.121720000000000      9.824210000000001
H      -0.476350000000000     -2.139130000000000     12.368440000000000
H      -1.897090000000000     -3.240890000000000     12.479310000000000
H      -0.316070000000000     -3.751870000000000     13.144080000000001

-C 0
6-31g(d,p)
****
-H 0
6-31g(d,p)
****
-Mg 0
6-31g(d,p)
****
-N 0
6-31+g(d,p)
****
-Na 0
6-31g(d,p)
****
-O 0
6-31+g(d,p)
****


