%chk=lowest10_c1_a2_speciation7_speciationDFT1_speciationDFT37b_rank09_E206.69.chk
%nprocshared=20
%mem=40GB
#p opt=loose PM7/gen scf=xqc 

lowest10_c1_a2_speciation7_speciationDFT1_speciationDFT37b_rank09_E206.69 DFT input

0 1
Mg      0.522500000000000      0.149800000000000     -0.092250000000000
C       1.128210000000000      0.063910000000000      3.036960000000000
C       2.750480000000000     -1.179900000000000      1.808960000000000
O       1.393210000000000     -0.827620000000000      1.971370000000000
C       1.848520000000000      1.407270000000000      2.925290000000000
C       3.230570000000000     -2.102520000000000      2.917150000000000
H       0.047030000000000      0.284310000000000      2.981880000000000
H       1.272400000000000     -0.415560000000000      4.025330000000000
H       2.814630000000000     -1.740800000000000      0.850900000000000
H       3.414980000000000     -0.301310000000000      1.677150000000000
H       2.523540000000000     -2.951980000000000      3.024250000000000
H       4.237280000000000     -2.493240000000000      2.662490000000000
H       3.295590000000000     -1.546210000000000      3.873650000000000
H       1.755500000000000      1.814900000000000      1.899130000000000
H       1.393020000000000      2.126540000000000      3.637740000000000
H       2.920120000000000      1.296420000000000      3.183200000000000
H       1.827810000000000      2.150170000000000     -1.108210000000000
C       2.404300000000000      0.401730000000000     -2.277140000000000
C       2.142670000000000      1.098380000000000     -0.957710000000000
C       1.122690000000000      0.333720000000000     -3.115500000000000
H       3.193490000000000      0.972600000000000     -2.804990000000000
H       2.760820000000000     -0.635090000000000     -2.084940000000000
H       0.386800000000000     -0.330580000000000     -2.616530000000000
H       0.668340000000000      1.342070000000000     -3.213410000000000
C       1.418520000000000     -0.196940000000000     -4.512640000000000
H       3.029130000000000      1.054880000000000     -0.293970000000000
H       2.114400000000000      0.497800000000000     -5.029900000000000
H       1.878420000000000     -1.206390000000000     -4.462080000000000
H       0.477820000000000     -0.257110000000000     -5.099170000000000
C      -1.554310000000000     -2.246080000000000     -2.220810000000000
C      -0.532640000000000     -2.677190000000000     -1.406200000000000
C      -0.736400000000000     -2.114440000000000     -0.159420000000000
C      -1.832480000000000     -1.348770000000000     -0.218370000000000
N      -2.421090000000000     -1.414630000000000     -1.497010000000000
C      -2.398130000000000     -0.505220000000000      0.893780000000000
N      -1.542280000000000      0.661450000000000      1.174180000000000
C      -1.953820000000000      1.978020000000000      0.627380000000000
H       0.284880000000000     -3.320170000000000     -1.706000000000000
H      -1.676430000000000     -2.494210000000000     -3.264770000000000
H      -0.098780000000000     -2.257670000000000      0.699450000000000
H      -2.474220000000000     -1.125050000000000      1.812880000000000
H      -3.420610000000000     -0.201140000000000      0.620000000000000
C      -3.303610000000000      2.419130000000000      1.225710000000000
C      -0.888070000000000      3.010370000000000      1.047600000000000
C      -2.029550000000000      1.967690000000000     -0.914540000000000
H      -3.260180000000000      2.376700000000000      2.334700000000000
H      -3.540800000000000      3.460690000000000      0.919540000000000
H      -4.142530000000000      1.788250000000000      0.875340000000000
H       0.096250000000000      2.762500000000000      0.600220000000000
H      -1.160320000000000      4.034080000000000      0.707670000000000
H      -0.772110000000000      3.028110000000000      2.152620000000000
H      -1.033170000000000      1.763350000000000     -1.360880000000000
H      -2.742730000000000      1.203860000000000     -1.278370000000000
H      -2.376290000000000      2.954510000000000     -1.292740000000000
Na     -7.461910000000000     -2.911940000000000     -0.111610000000000
C      -6.597450000000000     -4.937310000000000      2.198720000000000
C      -7.782130000000000     -6.228480000000000      0.638730000000000
O      -7.657660000000000     -4.964600000000000      1.262740000000000
C      -5.290580000000000     -4.525160000000000      1.527910000000000
C      -8.727110000000000     -7.138850000000000      1.419160000000000
H      -6.846010000000000     -4.179810000000000      2.972010000000000
H      -6.477750000000000     -5.902500000000000      2.740400000000000
H      -8.209300000000001     -6.064440000000000     -0.373580000000000
H      -6.800610000000000     -6.728800000000000      0.483340000000000
H      -9.733610000000001     -6.677890000000000      1.498510000000000
H      -8.824100000000000     -8.109690000000001      0.889360000000000
H      -8.334880000000000     -7.328900000000000      2.439380000000000
H      -5.399460000000000     -3.526340000000000      1.055730000000000
H      -4.483820000000000     -4.475030000000000      2.288290000000000
H      -5.000310000000000     -5.262260000000000      0.751870000000000
C      -5.735690000000000     -4.558660000000000     -2.479560000000000
C      -6.328640000000000     -2.363960000000000     -3.199720000000000
O      -6.495370000000000     -3.388250000000000     -2.234860000000000
C      -4.225990000000000     -4.329830000000000     -2.444340000000000
C      -6.802670000000000     -2.759730000000000     -4.597960000000000
H      -5.970120000000000     -5.263060000000000     -1.654370000000000
H      -6.055550000000000     -5.072020000000000     -3.409230000000000
H      -6.969000000000000     -1.516950000000000     -2.872030000000000
H      -5.293130000000000     -1.964690000000000     -3.208230000000000
H      -7.847380000000000     -3.133290000000000     -4.553480000000000
H      -6.764880000000000     -1.871620000000000     -5.262900000000000
H      -6.144670000000000     -3.537240000000000     -5.035650000000000
H      -3.937800000000000     -3.842210000000000     -1.489680000000000
H      -3.704190000000000     -5.305480000000000     -2.518920000000000
H      -3.899990000000000     -3.708870000000000     -3.302480000000000
Na     -9.843570000000000     -4.382780000000000      2.043120000000000
C      -9.764580000000000     -1.249810000000000      0.928900000000000
C     -10.721480000000000     -2.715220000000000     -0.625420000000000
O      -9.798100000000000     -2.572740000000000      0.434790000000000
C      -9.048420000000000     -1.249350000000000      2.273750000000000
C     -10.155200000000001     -2.203410000000000     -1.948420000000000
H      -9.192060000000000     -0.597430000000000      0.235380000000000
H     -10.784940000000001     -0.837570000000000      1.096800000000000
H     -10.921569999999999     -3.802030000000000     -0.741470000000000
H     -11.703469999999999     -2.245900000000000     -0.395410000000000
H      -9.207360000000000     -2.728590000000000     -2.186480000000000
H     -10.884860000000000     -2.399110000000000     -2.761880000000000
H      -9.968859999999999     -1.111110000000000     -1.902660000000000
H      -8.021100000000001     -1.657900000000000      2.162760000000000
H      -8.981920000000001     -0.213000000000000      2.666540000000000
H      -9.605530000000000     -1.872440000000000      3.004190000000000
C     -12.369780000000000     -3.639770000000000      4.056620000000000
C     -10.534530000000000     -4.264560000000000      5.322980000000000
O     -11.003010000000000     -3.972480000000000      4.029060000000000
C     -12.819240000000001     -3.364400000000000      2.627830000000000
C      -9.048890000000000     -4.585190000000000      5.226720000000000
H     -12.977770000000000     -4.484380000000000      4.452440000000000
H     -12.537710000000001     -2.716590000000000      4.655350000000000
H     -10.654350000000001     -3.385860000000000      5.996010000000000
H     -11.055050000000000     -5.155950000000000      5.740030000000000
H      -8.500600000000000     -3.712080000000000      4.812550000000000
H      -8.642030000000000     -4.822180000000000      6.231620000000000
H      -8.889930000000000     -5.458380000000000      4.557340000000000
H     -12.664859999999999     -4.267150000000000      1.998050000000000
H     -13.894190000000000     -3.089950000000000      2.609320000000000
H     -12.228350000000001     -2.527350000000000      2.201740000000000
Mg     -7.502560000000000    -11.577140000000000     -4.095100000000000
H      -5.527640000000000    -10.539230000000000     -6.224440000000000
C      -4.760840000000000     -9.543730000000000     -4.434980000000000
C      -5.899830000000000    -10.028729999999999     -5.312390000000000
C      -3.932510000000000     -8.511570000000001     -5.194430000000000
H      -5.181500000000000     -9.091730000000000     -3.510290000000000
H      -4.129750000000000    -10.413830000000001     -4.149490000000000
H      -3.529400000000000     -8.973970000000000     -6.121820000000000
H      -4.581900000000000     -7.652690000000000     -5.472610000000000
C      -2.773750000000000     -8.004830000000000     -4.348970000000000
H      -6.594800000000000     -9.202680000000001     -5.571130000000000
H      -3.155620000000000     -7.526570000000000     -3.423040000000000
H      -2.100550000000000     -8.845370000000001     -4.077210000000000
H      -2.198590000000000     -7.255970000000000     -4.932060000000000
C      -9.127030000000000    -13.512140000000000     -6.008430000000000
C      -9.919050000000000    -14.619510000000000     -5.747180000000000
C      -9.900290000000000    -14.809020000000000     -4.373810000000000
C      -9.090190000000000    -13.824240000000000     -3.856910000000000
N      -8.638760000000000    -13.042570000000000     -4.854300000000000
C      -8.725140000000000    -13.582480000000000     -2.405160000000000
N      -7.693600000000000    -12.528150000000000     -2.309860000000000
C      -7.140910000000000    -12.110760000000001     -1.009530000000000
H     -10.451820000000000    -15.217670000000000     -6.472140000000000
H      -8.929200000000000    -13.081329999999999     -6.983670000000000
H     -10.412179999999999    -15.583040000000000     -3.815860000000000
H      -8.327800000000000    -14.526460000000000     -1.984900000000000
H      -9.648700000000000    -13.281739999999999     -1.868680000000000
C      -6.372480000000000    -13.283500000000000     -0.370940000000000
C      -6.155720000000000    -10.950350000000000     -1.239830000000000
C      -8.260809999999999    -11.630190000000001     -0.069710000000000
H      -5.557880000000000    -13.621960000000000     -1.048530000000000
H      -5.920580000000000    -12.978389999999999      0.596780000000000
H      -7.042430000000000    -14.144380000000000     -0.172870000000000
H      -6.673600000000000    -10.078189999999999     -1.693000000000000
H      -5.704100000000000    -10.622510000000000     -0.276910000000000
H      -5.332220000000000    -11.261620000000001     -1.917830000000000
H      -8.816120000000000    -10.786009999999999     -0.532370000000000
H      -8.975360000000000    -12.449500000000000      0.150330000000000
H      -7.835960000000000    -11.286160000000001      0.897810000000000

-C 0
6-31g(d,p)
****
-H 0
6-31g(d,p)
****
-Mg 0
6-31g(d,p)
****
-N 0
6-31+g(d,p)
****
-Na 0
6-31g(d,p)
****
-O 0
6-31+g(d,p)
****


