%chk=lowest10_c1_a2_speciation7_speciationDFT36_speciationDFT96_rank07_E228.61.chk
%nprocshared=20
%mem=40GB
#p opt=loose PM7/gen scf=xqc 

lowest10_c1_a2_speciation7_speciationDFT36_speciationDFT96_rank07_E228.61 DFT input

0 1
Mg      0.377310000000000     -0.061140000000000     -0.374830000000000
C      -0.457370000000000     -3.161490000000000      1.010200000000000
C       0.586240000000000     -1.663690000000000      2.547700000000000
O      -0.083190000000000     -1.830070000000000      1.312130000000000
C      -1.511400000000000     -3.730120000000000      1.954770000000000
C       1.933780000000000     -2.377510000000000      2.614390000000000
H      -0.906050000000000     -3.135360000000000     -0.006400000000000
H       0.416060000000000     -3.836670000000000      0.934650000000000
H       0.803590000000000     -0.581300000000000      2.642430000000000
H      -0.066310000000000     -1.905160000000000      3.410970000000000
H       2.555040000000000     -2.106010000000000      1.735950000000000
H       2.464360000000000     -2.065760000000000      3.538100000000000
H       1.796400000000000     -3.475960000000000      2.651570000000000
H      -2.390690000000000     -3.057340000000000      2.009010000000000
H      -1.840940000000000     -4.718980000000000      1.572410000000000
H      -1.089290000000000     -3.875020000000000      2.968600000000000
H       0.501780000000000     -2.273850000000000     -2.343380000000000
C       2.436340000000000     -2.593610000000000     -1.355180000000000
C       1.360060000000000     -1.701710000000000     -1.934580000000000
C       3.020490000000000     -3.459890000000000     -2.457440000000000
H       3.232260000000000     -1.967930000000000     -0.901380000000000
H       1.996980000000000     -3.229470000000000     -0.562290000000000
H       2.210280000000000     -4.076440000000000     -2.904280000000000
H       3.454420000000000     -2.804040000000000     -3.243360000000000
C       4.103900000000000     -4.373620000000000     -1.907750000000000
H       1.767510000000000     -0.976310000000000     -2.668840000000000
H       4.925670000000000     -3.770340000000000     -1.466070000000000
H       3.680710000000000     -5.043310000000000     -1.128720000000000
H       4.510130000000000     -4.990060000000000     -2.734850000000000
C      -2.889330000000000      3.593600000000000     -0.622350000000000
C      -1.845220000000000      4.447660000000000     -0.877190000000000
C      -0.758270000000000      4.015810000000000     -0.126860000000000
C      -1.121120000000000      2.920040000000000      0.550900000000000
N      -2.471880000000000      2.619950000000000      0.288840000000000
C      -0.309860000000000      2.100990000000000      1.532750000000000
N       0.829570000000000      1.346400000000000      0.978030000000000
C       2.149980000000000      1.918270000000000      0.683550000000000
H      -1.887720000000000      5.298860000000000     -1.542590000000000
H      -3.883630000000000      3.647540000000000     -1.046540000000000
H       0.199160000000000      4.508180000000000     -0.102390000000000
H      -1.003070000000000      1.330270000000000      1.933980000000000
H      -0.003620000000000      2.714610000000000      2.397810000000000
C       2.459870000000000      3.098960000000000      1.606170000000000
C       3.193000000000000      0.811950000000000      0.936120000000000
C       2.245540000000000      2.311200000000000     -0.805140000000000
H       2.379910000000000      2.769560000000000      2.665550000000000
H       3.483970000000000      3.479570000000000      1.423300000000000
H       1.744800000000000      3.922730000000000      1.433420000000000
H       2.987340000000000     -0.068230000000000      0.294310000000000
H       4.220400000000000      1.168390000000000      0.707340000000000
H       3.162420000000000      0.470500000000000      1.992600000000000
H       2.120090000000000      1.421380000000000     -1.461660000000000
H       1.474260000000000      3.037050000000000     -1.098390000000000
H       3.239220000000000      2.756700000000000     -1.024030000000000
C      -2.329620000000000      0.262860000000000     -1.968680000000000
C      -2.848200000000000     -0.543460000000000      0.188200000000000
O      -1.880740000000000     -0.460590000000000     -0.839550000000000
C      -1.174240000000000      1.069940000000000     -2.565690000000000
C      -3.908850000000000     -1.573600000000000     -0.138480000000000
H      -2.681290000000000     -0.460980000000000     -2.730980000000000
H      -3.151150000000000      0.974460000000000     -1.737100000000000
H      -2.331730000000000     -0.841030000000000      1.122310000000000
H      -3.322640000000000      0.422600000000000      0.425140000000000
H      -3.432240000000000     -2.556410000000000     -0.330480000000000
H      -4.606700000000000     -1.658140000000000      0.719930000000000
H      -4.473350000000000     -1.248060000000000     -1.035470000000000
H      -0.791720000000000      1.815080000000000     -1.844820000000000
H      -0.330740000000000      0.409620000000000     -2.850590000000000
H      -1.521030000000000      1.611470000000000     -3.469720000000000
Na      4.923870000000000     14.632730000000000      2.506170000000000
C       6.340260000000000     16.652149999999999      0.478520000000000
C       6.005900000000000     17.869180000000000      2.455600000000000
O       5.501690000000000     16.863370000000000      1.597770000000000
C       7.399010000000000     15.597650000000000      0.784780000000000
C       5.476670000000000     19.245979999999999      2.062090000000000
H       5.707710000000000     16.279010000000000     -0.354590000000000
H       6.811470000000000     17.591390000000001      0.110980000000000
H       5.657960000000000     17.640309999999999      3.485510000000000
H       7.117630000000000     17.877990000000000      2.499280000000000
H       4.367830000000000     19.263110000000001      2.104260000000000
H       5.868160000000000     20.006460000000001      2.769600000000000
H       5.804220000000000     19.513649999999998      1.036470000000000
H       6.915190000000000     14.642429999999999      1.077720000000000
H       8.019290000000000     15.422590000000000     -0.118610000000000
H       8.060449999999999     15.935240000000000      1.608410000000000
C       7.432330000000000     14.786420000000000      4.735550000000000
C       6.017510000000000     12.910950000000000      5.146260000000000
O       6.217000000000000     14.122019999999999      4.438110000000000
C       8.680720000000001     13.989160000000000      4.356130000000000
C       5.912290000000000     13.097860000000001      6.659640000000000
H       7.443820000000000     15.709569999999999      4.118810000000000
H       7.465580000000000     15.133470000000001      5.788510000000000
H       5.041120000000000     12.504470000000000      4.804860000000000
H       6.769600000000000     12.142070000000000      4.873620000000000
H       5.137860000000000     13.857580000000000      6.896060000000000
H       5.627130000000000     12.132940000000000      7.128840000000000
H       6.885620000000000     13.408270000000000      7.090400000000000
H       8.630020000000000     13.683260000000001      3.289980000000000
H       9.578450000000000     14.625220000000001      4.505690000000000
H       8.792759999999999     13.092969999999999      4.999020000000000
Na      3.214790000000000     17.425550000000001      1.182030000000000
C       2.038090000000000     14.355340000000000      1.665790000000000
C       1.980310000000000     15.634280000000000      3.623850000000000
O       2.631690000000000     15.412690000000000      2.389480000000000
C       2.534900000000000     14.406210000000000      0.226600000000000
C       2.401060000000000     14.618480000000000      4.684870000000000
H       2.347440000000000     13.381850000000000      2.098100000000000
H       0.928040000000000     14.436010000000000      1.636930000000000
H       2.287940000000000     16.641089999999998      3.979160000000000
H       0.873950000000000     15.672689999999999      3.514950000000000
H       3.502090000000000     14.640760000000000      4.819010000000000
H       1.919680000000000     14.875930000000000      5.651560000000000
H       2.085600000000000     13.593719999999999      4.400950000000000
H       3.642980000000000     14.329409999999999      0.199510000000000
H       2.102800000000000     13.562900000000001     -0.352280000000000
H       2.228930000000000     15.360379999999999     -0.250780000000000
C       0.423000000000000     18.290740000000000     -0.379330000000000
C       2.203620000000000     18.425380000000001     -1.853740000000000
O       1.792500000000000     18.029350000000001     -0.568000000000000
C       0.050500000000000     17.867650000000001      1.035460000000000
C       3.681300000000000     18.088310000000000     -2.002280000000000
H       0.206870000000000     19.378129999999999     -0.482090000000000
H      -0.192440000000000     17.695910000000001     -1.090900000000000
H       1.642900000000000     17.869190000000000     -2.638360000000000
H       2.083930000000000     19.524300000000000     -1.986060000000000
H       3.833490000000000     16.995100000000001     -1.874900000000000
H       4.043560000000000     18.387509999999999     -3.007640000000000
H       4.274240000000000     18.624880000000001     -1.230060000000000
H       0.648140000000000     18.442150000000002      1.775870000000000
H      -1.027990000000000     18.051810000000000      1.220170000000000
H       0.257900000000000     16.786110000000001      1.172270000000000
Mg      0.266270000000000      8.752540000000000      6.703870000000000
C       1.294510000000000      6.260760000000000      3.926460000000000
C      -0.752610000000000      7.148420000000000      3.345870000000000
O       0.025720000000000      6.649070000000000      4.413900000000000
C       1.964980000000000      5.341260000000000      4.935020000000000
C      -2.074460000000000      7.676100000000000      3.885190000000000
H       1.217350000000000      5.689780000000000      2.975120000000000
H       1.936120000000000      7.154380000000000      3.773750000000000
H      -0.232800000000000      7.982570000000000      2.825410000000000
H      -0.980970000000000      6.338150000000000      2.619230000000000
H      -1.897120000000000      8.497090000000000      4.609170000000000
H      -2.691930000000000      8.066480000000000      3.048710000000000
H      -2.630130000000000      6.859970000000000      4.392490000000000
H       1.344430000000000      4.436530000000000      5.099680000000000
H       2.966500000000000      5.039760000000000      4.563800000000000
H       2.094650000000000      5.855720000000000      5.900460000000000
H      -2.765260000000000      7.443830000000000      6.920700000000000
C      -2.360300000000000      9.249029999999999      8.094049999999999
C      -1.975600000000000      7.870460000000000      7.571300000000000
C      -2.593190000000000     10.238239999999999      6.945220000000000
H      -3.286020000000000      9.142460000000000      8.696630000000001
H      -1.544690000000000      9.631900000000000      8.746869999999999
H      -1.651420000000000     10.389490000000000      6.373570000000000
H      -3.366860000000000      9.837870000000001      6.255620000000000
C      -3.072380000000000     11.586069999999999      7.476900000000000
H      -1.753090000000000      7.179660000000000      8.410280000000000
H      -4.026830000000000     11.456569999999999      8.030870000000000
H      -2.313990000000000     12.030790000000000      8.155700000000000
H      -3.247720000000000     12.282959999999999      6.630270000000000
C       0.407250000000000     10.295240000000000      3.942550000000000
C       1.482550000000000     10.664130000000000      3.153140000000000
C       2.626100000000000     10.231070000000001      3.808130000000000
C       2.200460000000000      9.595599999999999      4.953500000000000
N       0.860350000000000      9.648130000000000      5.021730000000000
C       3.037390000000000      8.931270000000000      6.031530000000000
N       2.185020000000000      8.105990000000000      6.921810000000000
C       2.690320000000000      7.715840000000000      8.251799999999999
H       1.434810000000000     11.188430000000000      2.210770000000000
H      -0.639070000000000     10.482870000000000      3.728030000000000
H       3.649550000000000     10.352779999999999      3.477050000000000
H       3.779060000000000      8.260529999999999      5.550340000000000
H       3.565680000000000      9.733449999999999      6.584990000000000
C       2.702000000000000      8.922630000000000      9.205030000000001
C       1.747210000000000      6.643830000000000      8.835400000000000
C       4.102530000000000      7.107110000000000      8.132400000000001
H       1.676030000000000      9.335360000000000      9.316640000000000
H       3.066400000000000      8.614670000000000     10.209540000000001
H       3.368260000000000      9.726350000000000      8.834899999999999
H       1.707010000000000      5.744770000000000      8.185250000000000
H       2.094410000000000      6.317620000000000      9.840640000000000
H       0.715260000000000      7.040440000000000      8.938499999999999
H       4.088900000000000      6.238600000000000      7.438070000000000
H       4.827610000000000      7.852890000000000      7.745970000000000
H       4.467030000000000      6.758210000000000      9.121930000000001

-C 0
6-31g(d,p)
****
-H 0
6-31g(d,p)
****
-Mg 0
6-31g(d,p)
****
-N 0
6-31+g(d,p)
****
-Na 0
6-31g(d,p)
****
-O 0
6-31+g(d,p)
****


