%chk=lowest10_c1_a2_speciation0_speciationDFT37b_speciationDFT38_rank04_E162.27.chk
%nprocshared=20
%mem=40GB
#p opt=loose PM7/gen scf=xqc 

lowest10_c1_a2_speciation0_speciationDFT37b_speciationDFT38_rank04_E162.27 DFT input

0 1
Mg     -0.079820000000000      0.955640000000000     -0.017810000000000
C       0.165230000000000     -1.739210000000000      1.853870000000000
C      -1.987510000000000     -1.654490000000000      0.811550000000000
O      -0.805130000000000     -0.970450000000000      1.165160000000000
C       0.501130000000000     -3.092300000000000      1.223260000000000
C      -2.824020000000000     -2.031660000000000      2.024170000000000
H       1.099370000000000     -1.144810000000000      1.824490000000000
H      -0.104170000000000     -1.846050000000000      2.922720000000000
H      -2.588040000000000     -0.955090000000000      0.199110000000000
H      -1.792480000000000     -2.515200000000000      0.142030000000000
H      -3.792420000000000     -2.449730000000000      1.679650000000000
H      -3.016420000000000     -1.134400000000000      2.648110000000000
H      -2.296830000000000     -2.794500000000000      2.629570000000000
H       0.750330000000000     -2.974400000000000      0.156000000000000
H      -0.345600000000000     -3.799250000000000      1.332790000000000
H       1.386220000000000     -3.525360000000000      1.730560000000000
H      -1.392850000000000      2.487280000000000      1.723160000000000
C      -2.315570000000000      3.024680000000000     -0.193280000000000
C      -1.091510000000000      2.687470000000000      0.675350000000000
C      -3.355620000000000      1.895660000000000     -0.336430000000000
H      -2.810420000000000      3.920790000000000      0.235210000000000
H      -1.960090000000000      3.273850000000000     -1.216060000000000
H      -4.186010000000000      2.265420000000000     -0.979670000000000
H      -2.898930000000000      1.028380000000000     -0.854240000000000
C      -3.960270000000000      1.443210000000000      0.992580000000000
H      -0.366420000000000      3.523310000000000      0.654280000000000
H      -3.177580000000000      1.021370000000000      1.651740000000000
H      -4.453770000000000      2.293470000000000      1.507030000000000
H      -4.718830000000000      0.650890000000000      0.808240000000000
C      -1.150890000000000     -1.838250000000000     -2.574770000000000
C      -1.281040000000000     -0.494470000000000     -2.840830000000000
C      -0.098540000000000      0.118050000000000     -2.464160000000000
C       0.714060000000000     -0.817180000000000     -1.960030000000000
N       0.115190000000000     -2.090890000000000     -2.029490000000000
C       2.069400000000000     -0.572170000000000     -1.350550000000000
N       1.919890000000000      0.334670000000000     -0.205300000000000
C       3.136600000000000      0.849030000000000      0.469080000000000
H      -2.161910000000000     -0.016030000000000     -3.247260000000000
H      -1.906210000000000     -2.593490000000000     -2.739450000000000
H       0.109590000000000      1.180170000000000     -2.515700000000000
H       2.736100000000000     -0.144570000000000     -2.122120000000000
H       2.475570000000000     -1.544710000000000     -1.001370000000000
C       3.924350000000000      1.784410000000000     -0.469280000000000
C       2.712370000000000      1.642210000000000      1.716350000000000
C       4.052330000000000     -0.314670000000000      0.919680000000000
H       3.294040000000000      2.643460000000000     -0.780100000000000
H       4.832060000000000      2.174880000000000      0.041120000000000
H       4.271450000000000      1.251660000000000     -1.377530000000000
H       2.173660000000000      0.990230000000000      2.435950000000000
H       3.602460000000000      2.065360000000000      2.234660000000000
H       2.043230000000000      2.481110000000000      1.432060000000000
H       3.508550000000000     -1.004260000000000      1.599950000000000
H       4.423840000000000     -0.898830000000000      0.052050000000000
H       4.943280000000000      0.070620000000000      1.462890000000000
Na      8.124800000000000     -6.921790000000000     10.150720000000000
C       8.213640000000000     -4.144330000000000      8.405580000000000
C       6.141600000000000     -5.135700000000000      8.236250000000000
O       7.532460000000000     -5.350320000000000      8.132440000000001
C       9.712020000000001     -4.379330000000000      8.275829999999999
C       5.410700000000000     -6.439860000000000      7.952300000000000
H       7.928980000000000     -3.352830000000000      7.674850000000000
H       8.011350000000000     -3.803970000000000      9.446700000000000
H       5.866410000000000     -4.808100000000000      9.264950000000001
H       5.803610000000000     -4.391180000000000      7.482460000000000
H       5.714520000000000     -7.216740000000000      8.685600000000001
H       4.314330000000000     -6.279760000000000      8.031620000000000
H       5.648000000000000     -6.795110000000000      6.926950000000000
H       9.959330000000000     -4.711140000000000      7.244970000000000
H      10.260230000000000     -3.437720000000000      8.490990000000000
H      10.040640000000000     -5.158530000000000      8.996130000000001
Na      7.903580000000000     -5.707090000000000      5.546910000000000
Mg      3.920490000000000      0.052190000000000      8.307100000000000
C       5.817620000000000      1.028460000000000     10.718500000000001
C       3.872760000000000     -0.081280000000000     11.533860000000001
O       4.421060000000000      0.827790000000000     10.600980000000000
C       6.652490000000000     -0.237610000000000     10.519780000000001
C       3.832670000000000      0.496160000000000     12.941570000000000
H       6.096220000000000      1.719270000000000      9.899089999999999
H       6.081340000000000      1.562300000000000     11.653269999999999
H       2.823010000000000     -0.264920000000000     11.217520000000000
H       4.360440000000000     -1.076660000000000     11.504009999999999
H       3.318770000000000      1.480340000000000     12.926790000000000
H       3.276200000000000     -0.196040000000000     13.606809999999999
H       4.859600000000000      0.616570000000000     13.340750000000000
H       6.329200000000000     -0.774950000000000      9.606909999999999
H       7.721320000000000      0.042360000000000     10.413180000000001
H       6.563470000000000     -0.911960000000000     11.393980000000001
H       4.571720000000000     -2.392450000000000      7.625950000000000
C       2.436230000000000     -2.443910000000000      8.033939999999999
C       3.851580000000000     -2.033700000000000      8.387070000000000
C       2.011700000000000     -1.803730000000000      6.707980000000000
H       2.407110000000000     -3.550680000000000      7.967210000000000
H       1.743420000000000     -2.103640000000000      8.835500000000000
H       1.963170000000000     -0.700050000000000      6.826740000000000
H       2.750540000000000     -2.037390000000000      5.912010000000000
C       0.649570000000000     -2.322710000000000      6.267410000000000
H       4.139650000000000     -2.407150000000000      9.390870000000000
H       0.707920000000000     -3.419210000000000      6.098170000000000
H      -0.120510000000000     -2.109690000000000      7.038490000000000
H       0.353550000000000     -1.831450000000000      5.318090000000000
C       1.013320000000000      1.973740000000000      6.637820000000000
C       1.067170000000000      1.759900000000000      8.002470000000001
C       2.327020000000000      2.149370000000000      8.414529999999999
C       2.971720000000000      2.551420000000000      7.324000000000000
N       2.124770000000000      2.452460000000000      6.208480000000000
C       4.392220000000000      3.050130000000000      7.250040000000000
N       5.358810000000000      1.968630000000000      7.512180000000000
C       6.046310000000000      1.368930000000000      6.341090000000000
H       0.279500000000000      1.351650000000000      8.624840000000001
H       0.171250000000000      1.770390000000000      5.995030000000000
H       2.708370000000000      2.123100000000000      9.422440000000000
H       4.527030000000000      3.847180000000000      8.011760000000001
H       4.551520000000000      3.512520000000000      6.262000000000000
C       6.947260000000000      2.409590000000000      5.644960000000000
C       6.952400000000000      0.232700000000000      6.855540000000000
C       5.044620000000000      0.761160000000000      5.335340000000000
H       7.649690000000000      2.857800000000000      6.379910000000000
H       7.540720000000000      1.929750000000000      4.837240000000000
H       6.365440000000000      3.222980000000000      5.171460000000000
H       6.348780000000000     -0.567030000000000      7.330360000000000
H       7.523600000000000     -0.232310000000000      6.021570000000000
H       7.679870000000000      0.615660000000000      7.603540000000000
H       4.445570000000000     -0.042200000000000      5.814270000000000
H       4.351860000000000      1.527540000000000      4.936860000000000
H       5.584360000000000      0.315610000000000      4.471150000000000

-C 0
6-31g(d,p)
****
-H 0
6-31g(d,p)
****
-Mg 0
6-31g(d,p)
****
-N 0
6-31+g(d,p)
****
-Na 0
6-31g(d,p)
****
-O 0
6-31+g(d,p)
****


