%chk=lowest10_c1_a2_speciation0_speciationDFT37b_speciationDFT96_rank08_E169.05.chk
%nprocshared=20
%mem=40GB
#p opt=loose PM7/gen scf=xqc 

lowest10_c1_a2_speciation0_speciationDFT37b_speciationDFT96_rank08_E169.05 DFT input

0 1
Mg     -0.036030000000000      0.305630000000000     -0.380390000000000
C       3.074320000000000      1.139400000000000      1.013330000000000
C       1.255390000000000      1.294500000000000      2.548980000000000
O       1.732940000000000      0.799270000000000      1.312380000000000
C       4.092550000000000      0.509570000000000      1.959430000000000
C       1.199280000000000      2.818340000000000      2.617040000000000
H       3.277550000000000      0.738550000000000     -0.003240000000000
H       3.223100000000000      2.233430000000000      0.938490000000000
H       0.210120000000000      0.939910000000000      2.646650000000000
H       1.793550000000000      0.850700000000000      3.409490000000000
H       0.650770000000000      3.220260000000000      1.740060000000000
H       0.666910000000000      3.121330000000000      3.542640000000000
H       2.218950000000000      3.249620000000000      2.651410000000000
H       3.949920000000000     -0.588470000000000      2.011460000000000
H       5.114150000000000      0.719380000000000      1.578690000000000
H       4.006820000000000      0.945420000000000      2.974380000000000
H       1.826400000000000      1.529900000000000     -2.348780000000000
C       1.134610000000000      3.362060000000000     -1.358540000000000
C       0.900810000000000      1.984040000000000     -1.938680000000000
C       1.593080000000000      4.302830000000000     -2.459830000000000
H       0.194270000000000      3.737630000000000     -0.904890000000000
H       1.904830000000000      3.298860000000000     -0.565370000000000
H       2.532530000000000      3.910740000000000     -2.907000000000000
H       0.808660000000000      4.351970000000000     -3.246240000000000
C       1.842140000000000      5.697310000000000     -1.908300000000000
H       0.071340000000000      1.976990000000000     -2.675830000000000
H       0.908470000000000      6.106460000000000     -1.466520000000000
H       2.633420000000000      5.664710000000000     -1.129030000000000
H       2.173070000000000      6.358580000000000     -2.734390000000000
C      -1.564200000000000     -4.346670000000000     -0.623560000000000
C      -2.823850000000000     -3.866610000000000     -0.877720000000000
C      -2.993820000000000     -2.709470000000000     -0.126830000000000
C      -1.861470000000000     -2.480070000000000      0.551750000000000
N      -0.928550000000000     -3.497920000000000      0.290320000000000
C      -1.561690000000000     -1.365840000000000      1.534980000000000
N      -1.477610000000000     -0.003280000000000      0.980410000000000
C      -2.634240000000000      0.855010000000000      0.684680000000000
H      -3.541480000000000     -4.327000000000000     -1.544120000000000
H      -1.115390000000000     -5.234530000000000     -1.047830000000000
H      -3.896650000000000     -2.126220000000000     -0.101250000000000
H      -0.548340000000000     -1.581670000000000      1.939150000000000
H      -2.248040000000000     -1.408980000000000      2.398550000000000
C      -3.813500000000000      0.534630000000000      1.606930000000000
C      -2.196420000000000      2.310980000000000      0.937250000000000
C      -3.020430000000000      0.741600000000000     -0.804350000000000
H      -3.489450000000000      0.634210000000000      2.666070000000000
H      -4.654050000000000      1.232660000000000      1.421110000000000
H      -4.173390000000000     -0.497240000000000      1.440420000000000
H      -1.331200000000000      2.572310000000000      0.295130000000000
H      -3.018330000000000      3.023470000000000      0.708960000000000
H      -1.885050000000000      2.455060000000000      1.993670000000000
H      -2.184880000000000      1.075180000000000     -1.459310000000000
H      -3.266580000000000     -0.288120000000000     -1.098550000000000
H      -3.900370000000000      1.382660000000000     -1.025400000000000
C       1.045730000000000     -2.198710000000000     -1.970940000000000
C       2.003920000000000     -2.244860000000000      0.185450000000000
O       1.448830000000000     -1.448000000000000     -0.842190000000000
C      -0.229980000000000     -1.599700000000000     -2.567560000000000
C       3.427590000000000     -2.646020000000000     -0.139720000000000
H       1.848200000000000     -2.143100000000000     -2.733670000000000
H       0.838580000000000     -3.265680000000000     -1.739070000000000
H       2.001630000000000     -1.649280000000000      1.120030000000000
H       1.405170000000000     -3.140150000000000      0.420350000000000
H       4.039500000000000     -1.740870000000000     -0.330170000000000
H       3.849600000000000     -3.208020000000000      0.718850000000000
H       3.430350000000000     -3.297060000000000     -1.037190000000000
H      -1.065920000000000     -1.638630000000000     -1.845570000000000
H      -0.076970000000000     -0.539620000000000     -2.853170000000000
H      -0.527690000000000     -2.170530000000000     -3.471060000000000
Na      1.465860000000000      8.805520000000000     11.379650000000000
C       3.138490000000000      6.142720000000000     12.329510000000001
C       1.688550000000000      5.614140000000000     10.619970000000000
O       1.805570000000000      6.246150000000000     11.876160000000000
C       3.253120000000000      6.811690000000000     13.691950000000000
C       0.253490000000000      5.737110000000000     10.129149999999999
H       3.436240000000000      5.075620000000000     12.448370000000001
H       3.833610000000000      6.665710000000000     11.633800000000001
H       2.349050000000000      6.102270000000000      9.867150000000001
H       1.921950000000000      4.530150000000000     10.704580000000000
H      -0.025430000000000      6.807180000000000     10.025650000000001
H       0.152170000000000      5.241700000000000      9.140100000000000
H      -0.438740000000000      5.248760000000000     10.847610000000000
H       2.580950000000000      6.311490000000000     14.421279999999999
H       4.298700000000000      6.739630000000000     14.059350000000000
H       2.972270000000000      7.883770000000000     13.616180000000000
Na      0.467740000000000      4.643970000000000     13.492740000000000
Mg      5.655530000000000      2.114080000000000      8.660410000000001
C       8.022069999999999      4.257190000000000      9.097770000000001
C       6.928050000000000      4.578860000000000      7.005670000000000
O       7.449010000000000      3.662680000000000      7.947440000000000
C       7.046950000000000      5.101250000000000      9.920360000000001
C       8.027150000000001      5.328980000000000      6.266400000000000
H       8.337809999999999      3.419220000000000      9.749219999999999
H       8.953540000000000      4.807770000000000      8.858020000000000
H       6.369300000000000      3.978720000000000      6.255100000000000
H       6.175010000000000      5.265320000000000      7.442900000000000
H       8.743510000000001      4.603510000000000      5.826600000000000
H       7.575800000000000      5.934520000000000      5.453440000000000
H       8.562700000000000      6.011830000000000      6.955850000000000
H       6.107660000000000      4.542660000000000     10.099720000000000
H       7.511500000000000      5.347750000000000     10.897910000000000
H       6.814920000000000      6.053970000000000      9.405239999999999
H       3.402610000000000      3.106630000000000      9.564270000000000
C       3.001870000000000      2.513760000000000      7.510660000000000
C       3.863580000000000      3.186610000000000      8.560280000000001
C       2.876230000000000      1.015760000000000      7.807660000000000
H       2.006830000000000      3.004010000000000      7.517920000000000
H       3.470550000000000      2.644340000000000      6.509870000000000
H       3.872020000000000      0.532470000000000      7.709510000000000
H       2.511460000000000      0.857520000000000      8.844930000000000
C       1.898390000000000      0.352520000000000      6.847060000000000
H       4.045540000000000      4.251310000000000      8.308500000000000
H       0.890070000000000      0.800890000000000      6.975920000000000
H       2.230290000000000      0.488360000000000      5.797040000000000
H       1.835520000000000     -0.733580000000000      7.068120000000000
C       5.848250000000000     -1.368580000000000      6.928340000000000
C       6.285140000000000     -0.206410000000000      6.329500000000000
C       7.111030000000000      0.432070000000000      7.236630000000000
C       7.164480000000000     -0.299100000000000      8.351060000000000
N       6.397160000000000     -1.480090000000000      8.210480000000000
C       7.925220000000000      0.029660000000000      9.604799999999999
N       7.335860000000000      1.186170000000000     10.307440000000000
C       6.480790000000000      0.902790000000000     11.486789999999999
H       6.014190000000000      0.134230000000000      5.340110000000000
H       5.175910000000000     -2.091190000000000      6.485200000000000
H       7.618140000000000      1.372930000000000      7.066510000000000
H       8.975300000000001      0.270340000000000      9.332090000000001
H       7.952590000000000     -0.865760000000000     10.245210000000000
C       7.303610000000000      0.249910000000000     12.617000000000001
C       5.943630000000000      2.248020000000000     12.014150000000001
C       5.269440000000000      0.018890000000000     11.120649999999999
H       8.185150000000000      0.880860000000000     12.859909999999999
H       6.684800000000000      0.139580000000000     13.533189999999999
H       7.658110000000000     -0.764130000000000     12.351419999999999
H       5.306400000000000      2.741580000000000     11.252840000000001
H       5.321170000000000      2.100760000000000     12.924550000000000
H       6.780170000000000      2.932750000000000     12.271789999999999
H       4.633770000000000      0.517960000000000     10.358630000000000
H       5.588900000000000     -0.964610000000000     10.725250000000001
H       4.641400000000000     -0.169510000000000     12.018640000000000

-C 0
6-31g(d,p)
****
-H 0
6-31g(d,p)
****
-Mg 0
6-31g(d,p)
****
-N 0
6-31+g(d,p)
****
-Na 0
6-31g(d,p)
****
-O 0
6-31+g(d,p)
****


