%chk=lowest10_c1_a2_speciation0_speciationDFT37b_speciationDFT37b_rank10_E146.77.chk
%nprocshared=20
%mem=40GB
#p opt=loose PM7/gen scf=xqc 

lowest10_c1_a2_speciation0_speciationDFT37b_speciationDFT37b_rank10_E146.77 DFT input

0 1
Mg     -0.092950000000000     -0.522830000000000     -0.092630000000000
C      -0.471910000000000     -1.002040000000000      3.042490000000000
C      -2.360520000000000     -1.782100000000000      1.813160000000000
O      -1.376580000000000     -0.782890000000000      1.977230000000000
C       0.330670000000000     -2.297130000000000      2.925700000000000
C      -3.400600000000000     -1.737650000000000      2.920560000000000
H       0.260080000000000     -0.175770000000000      2.990080000000000
H      -0.959120000000000     -0.891080000000000      4.031570000000000
H      -2.878060000000000     -1.557210000000000      0.854950000000000
H      -1.931960000000000     -2.796810000000000      1.680790000000000
H      -3.786820000000000     -0.701820000000000      3.024590000000000
H      -4.239580000000000     -2.417790000000000      2.666490000000000
H      -2.951560000000000     -2.068270000000000      3.878520000000000
H       0.732330000000000     -2.415140000000000      1.900030000000000
H       1.180370000000000     -2.265470000000000      3.636960000000000
H      -0.300800000000000     -3.171200000000000      3.179350000000000
H       0.986510000000000     -2.656150000000000     -1.113900000000000
C      -0.816130000000000     -2.277960000000000     -2.280380000000000
C      -0.081300000000000     -2.401420000000000     -0.961470000000000
C      -0.233410000000000     -1.133500000000000     -3.117310000000000
H      -0.717920000000000     -3.246360000000000     -2.809770000000000
H      -1.891920000000000     -2.067480000000000     -2.087200000000000
H      -0.438160000000000     -0.164340000000000     -2.616010000000000
H       0.866640000000000     -1.246620000000000     -3.217410000000000
C      -0.843180000000000     -1.120430000000000     -4.513290000000000
H      -0.562380000000000     -3.148400000000000     -0.298890000000000
H      -0.592420000000000     -2.069990000000000     -5.032810000000000
H      -1.947000000000000     -1.011560000000000     -4.460480000000000
H      -0.423930000000000     -0.275350000000000     -5.098620000000000
C      -1.136670000000000      2.491360000000000     -2.220740000000000
C      -2.014450000000000      1.815710000000000     -1.406320000000000
C      -1.424010000000000      1.703830000000000     -0.159750000000000
C      -0.212440000000000      2.275000000000000     -0.223010000000000
N       0.020470000000000      2.823210000000000     -1.494820000000000
C       0.800710000000000      2.340260000000000      0.892730000000000
N       1.381220000000000      1.016970000000000      1.175120000000000
C       2.727670000000000      0.713650000000000      0.628770000000000
H      -2.981700000000000      1.427990000000000     -1.704620000000000
H      -1.291970000000000      2.726490000000000     -3.262140000000000
H      -1.862850000000000      1.221560000000000      0.696870000000000
H       0.301720000000000      2.718870000000000      1.809960000000000
H       1.576080000000000      3.073620000000000      0.617340000000000
C       3.785500000000000      1.661310000000000      1.227300000000000
C       3.088210000000000     -0.725210000000000      1.048760000000000
C       2.755820000000000      0.784330000000000     -0.913110000000000
H       3.729360000000000      1.642470000000000      2.336400000000000
H       4.805660000000000      1.346740000000000      0.918540000000000
H       3.658400000000000      2.704190000000000      0.879970000000000
H       2.380400000000000     -1.453180000000000      0.602150000000000
H       4.110260000000000     -1.001490000000000      0.706910000000000
H       3.047850000000000     -0.834380000000000      2.154000000000000
H       2.075870000000000      0.027320000000000     -1.358410000000000
H       2.456260000000000      1.785470000000000     -1.277170000000000
H       3.782410000000000      0.584890000000000     -1.291930000000000
Na     -1.532260000000000     -8.250420000000000     11.210550000000000
C      -2.244150000000000     -5.058000000000000     11.517170000000000
C      -0.238740000000000     -5.536850000000000     12.543410000000000
O      -1.591850000000000     -5.919400000000000     12.425660000000001
C      -3.706460000000000     -5.466210000000000     11.408280000000000
C       0.464010000000000     -6.473990000000000     13.514640000000000
H      -2.211120000000000     -4.003520000000000     11.875610000000000
H      -1.791600000000000     -5.138690000000000     10.502570000000000
H       0.281630000000000     -5.611530000000000     11.561109999999999
H      -0.158200000000000     -4.506650000000000     12.954330000000001
H       0.412290000000000     -7.519430000000000     13.143230000000001
H       1.530580000000000     -6.179780000000000     13.613580000000001
H      -0.017540000000000     -6.418920000000000     14.514099999999999
H      -4.199750000000000     -5.389470000000000     12.400610000000000
H      -4.231290000000000     -4.797330000000000     10.693740000000000
H      -3.785010000000000     -6.512800000000000     11.044330000000000
Na     -2.619480000000000     -5.256670000000000     14.765870000000000
Mg      1.615800000000000     -0.532690000000000     10.714530000000000
C       0.376640000000000     -0.943470000000000      7.766440000000000
C       2.530660000000000     -1.944590000000000      7.958370000000000
O       1.700020000000000     -0.841500000000000      8.260149999999999
C      -0.405620000000000     -2.140270000000000      8.310180000000001
C       2.912000000000000     -1.988600000000000      6.485880000000000
H      -0.151570000000000     -0.037040000000000      8.121070000000000
H       0.342090000000000     -0.887980000000000      6.659890000000000
H       3.466260000000000     -1.806910000000000      8.542490000000001
H       2.111330000000000     -2.909060000000000      8.309860000000000
H       3.345880000000000     -1.012800000000000      6.181760000000000
H       3.662850000000000     -2.789190000000000      6.323270000000000
H       2.022430000000000     -2.212110000000000      5.866310000000000
H      -0.309800000000000     -2.196850000000000      9.412140000000001
H      -1.478050000000000     -2.025920000000000      8.047560000000001
H      -0.045380000000000     -3.086600000000000      7.861280000000000
H       0.950200000000000     -2.565900000000000     12.232410000000000
C       3.116150000000000     -2.421470000000000     12.359190000000000
C       1.824690000000000     -2.430810000000000     11.566240000000001
C       3.132740000000000     -1.239240000000000     13.333940000000000
H       3.191530000000000     -3.385060000000000     12.903570000000000
H       3.976480000000000     -2.323780000000000     11.660330000000000
H       3.143780000000000     -0.286320000000000     12.762449999999999
H       2.223930000000000     -1.253450000000000     13.972590000000000
C       4.357110000000000     -1.298230000000000     14.237890000000000
H       1.836840000000000     -3.221400000000000     10.788440000000000
H       4.323610000000000     -2.227100000000000     14.846520000000000
H       5.290310000000000     -1.286550000000000     13.636080000000000
H       4.358050000000000     -0.424610000000000     14.922969999999999
C       3.909150000000000      2.348630000000000     11.984489999999999
C       4.192390000000000      1.601700000000000     10.861850000000000
C       3.051600000000000      1.591340000000000     10.079929999999999
C       2.102700000000000      2.289920000000000     10.707120000000000
N       2.593490000000000      2.823650000000000     11.920529999999999
C       0.695680000000000      2.518400000000000     10.229170000000000
N      -0.096330000000000      1.274100000000000     10.264089999999999
C      -1.033150000000000      1.094840000000000     11.401230000000000
H       5.132450000000000      1.110800000000000     10.651080000000000
H       4.590260000000000      2.540930000000000     12.802239999999999
H       2.950800000000000      1.091160000000000      9.126519999999999
H       0.730570000000000      2.895120000000000      9.184440000000000
H       0.240040000000000      3.309700000000000     10.845260000000000
C      -2.147290000000000      2.161690000000000     11.367350000000000
C      -1.700700000000000     -0.286180000000000     11.249390000000000
C      -0.301050000000000      1.121320000000000     12.759950000000000
H      -2.654960000000000      2.151210000000000     10.379250000000001
H      -2.903520000000000      1.957720000000000     12.155419999999999
H      -1.762710000000000      3.182060000000000     11.555460000000000
H      -0.945660000000000     -1.095820000000000     11.310480000000000
H      -2.443790000000000     -0.462150000000000     12.058610000000000
H      -2.224790000000000     -0.365440000000000     10.272620000000000
H       0.453470000000000      0.308130000000000     12.816710000000000
H       0.209250000000000      2.089330000000000     12.927840000000000
H      -1.023490000000000      0.975220000000000     13.592490000000000

-C 0
6-31g(d,p)
****
-H 0
6-31g(d,p)
****
-Mg 0
6-31g(d,p)
****
-N 0
6-31+g(d,p)
****
-Na 0
6-31g(d,p)
****
-O 0
6-31+g(d,p)
****


