%chk=lowest10_c1_a2_speciation0_speciationDFT0_speciationDFT36_rank02_E180.48.chk
%nprocshared=20
%mem=40GB
#p opt=loose PM7/gen scf=xqc 

lowest10_c1_a2_speciation0_speciationDFT0_speciationDFT36_rank02_E180.48 DFT input

0 1
Mg     -0.293530000000000      0.400610000000000      0.667380000000000
C       0.967700000000000     -2.472110000000000     -1.400840000000000
C      -1.337200000000000     -2.549820000000000     -1.387850000000000
O      -0.187790000000000     -2.306180000000000     -0.602060000000000
C       2.186970000000000     -2.642040000000000     -0.507260000000000
C      -2.589010000000000     -2.284830000000000     -0.562010000000000
H       0.908110000000000     -3.384050000000000     -2.035780000000000
H       1.119080000000000     -1.582870000000000     -2.047070000000000
H      -1.360890000000000     -1.891010000000000     -2.281160000000000
H      -1.366550000000000     -3.609850000000000     -1.717420000000000
H      -2.624240000000000     -1.226710000000000     -0.232830000000000
H      -3.492060000000000     -2.494900000000000     -1.173420000000000
H      -2.599180000000000     -2.942390000000000      0.331970000000000
H       2.060750000000000     -3.524440000000000      0.152120000000000
H       3.096440000000000     -2.768320000000000     -1.130580000000000
H       2.331550000000000     -1.757900000000000      0.129210000000000
H      -2.278840000000000     -1.427050000000000      2.360990000000000
C      -2.431250000000000      0.740690000000000      2.735180000000000
C      -1.634540000000000     -0.542660000000000      2.530520000000000
C      -3.341650000000000      1.044400000000000      1.536830000000000
H      -3.041150000000000      0.616320000000000      3.652470000000000
H      -1.725600000000000      1.589520000000000      2.877860000000000
H      -2.731440000000000      1.231990000000000      0.625510000000000
H      -4.010070000000000      0.178480000000000      1.343880000000000
C      -4.210190000000000      2.269690000000000      1.813700000000000
H      -0.919580000000000     -0.715590000000000      3.360730000000000
H      -4.841660000000000      2.090150000000000      2.710200000000000
H      -3.578700000000000      3.166760000000000      1.987460000000000
H      -4.877450000000000      2.464800000000000      0.947550000000000
C      -1.506710000000000      0.663230000000000     -2.242320000000000
C      -0.906870000000000      0.971660000000000     -3.450380000000000
C       0.434580000000000      1.203110000000000     -3.183080000000000
C       0.599420000000000      1.011830000000000     -1.830880000000000
N      -0.575190000000000      0.677120000000000     -1.280290000000000
C       1.866290000000000      1.166460000000000     -1.008170000000000
N       1.700010000000000      0.569250000000000      0.337300000000000
C       2.636920000000000      0.943710000000000      1.415590000000000
H      -1.392680000000000      1.023150000000000     -4.413800000000000
H      -2.553780000000000      0.427800000000000     -2.086430000000000
H       1.205020000000000      1.469640000000000     -3.892970000000000
H       2.702780000000000      0.648500000000000     -1.518960000000000
H       2.074860000000000      2.252310000000000     -0.947760000000000
C       2.384640000000000      2.385380000000000      1.891390000000000
C       2.416240000000000     -0.007230000000000      2.610090000000000
C       4.091530000000000      0.785950000000000      0.929490000000000
H       1.352740000000000      2.488690000000000      2.290900000000000
H       3.100700000000000      2.651630000000000      2.699690000000000
H       2.521530000000000      3.116130000000000      1.070700000000000
H       2.596800000000000     -1.063830000000000      2.322710000000000
H       3.108630000000000      0.239740000000000      3.445310000000000
H       1.376940000000000      0.073490000000000      2.991120000000000
H       4.266130000000000     -0.252930000000000      0.573620000000000
H       4.307980000000000      1.482840000000000      0.093530000000000
H       4.809440000000000      1.001810000000000      1.748530000000000
Na      3.232220000000000     -1.775210000000000     12.832290000000000
C       5.658160000000000     -2.010560000000000     14.990340000000000
C       5.955770000000000     -3.526610000000000     13.281110000000000
O       5.038920000000000     -3.026770000000000     14.230990000000000
C       4.667230000000000     -1.479930000000000     16.016929999999999
C       5.278410000000000     -4.611890000000000     12.456260000000000
H       6.538330000000000     -2.410500000000000     15.543690000000000
H       5.960500000000000     -1.159330000000000     14.338699999999999
H       6.280140000000000     -2.722650000000000     12.581590000000000
H       6.836760000000000     -3.983750000000000     13.786840000000000
H       4.397920000000000     -4.194200000000000     11.923090000000000
H       5.992810000000000     -5.014860000000000     11.707340000000000
H       4.945120000000000     -5.440850000000000     13.116529999999999
H       4.346370000000000     -2.297310000000000     16.697179999999999
H       5.144380000000000     -0.678330000000000     16.619879999999998
H       3.774420000000000     -1.060970000000000     15.505940000000001
Na      4.766390000000000     -5.010330000000000     15.946389999999999
Mg      1.715630000000000     -3.678680000000000      8.331130000000000
H       1.195760000000000     -6.130600000000000      6.414970000000000
C       0.108320000000000     -4.576670000000000      5.315960000000000
C       0.593470000000000     -5.219180000000000      6.605260000000000
C       1.256470000000000     -4.172830000000000      4.380310000000000
H      -0.541130000000000     -5.309990000000000      4.794060000000000
H      -0.501120000000000     -3.680520000000000      5.559500000000000
H       1.868230000000000     -5.064330000000000      4.121230000000000
H       0.804810000000000     -3.775090000000000      3.446930000000000
C       2.163240000000000     -3.087290000000000      4.963860000000000
H      -0.266850000000000     -5.461830000000000      7.265790000000000
H       2.709210000000000     -3.461780000000000      5.853170000000000
H       2.911380000000000     -2.787890000000000      4.198950000000000
H       1.570280000000000     -2.190480000000000      5.244210000000000
C       4.888790000000000     -3.785330000000000      8.200510000000000
C       5.858080000000000     -2.888250000000000      8.618860000000000
C       5.193280000000000     -1.794620000000000      9.152430000000001
C       3.848940000000000     -2.061820000000000      9.017790000000000
N       3.677470000000000     -3.267740000000000      8.459270000000000
C       2.681150000000000     -1.184070000000000      9.425789999999999
N       1.426210000000000     -1.737750000000000      8.874689999999999
C       0.138520000000000     -1.052180000000000      9.083250000000000
H       6.929530000000000     -3.016130000000000      8.546849999999999
H       5.061380000000000     -4.750500000000000      7.742000000000000
H       5.637480000000000     -0.903840000000000      9.574999999999999
H       2.650280000000000     -1.148750000000000     10.533180000000000
H       2.846790000000000     -0.170460000000000      9.015530000000000
C       0.157670000000000      0.314930000000000      8.371490000000000
C      -0.979110000000000     -1.907810000000000      8.460430000000001
C      -0.150880000000000     -0.867680000000000     10.583480000000000
H       0.361560000000000      0.179040000000000      7.286330000000000
H      -0.819060000000000      0.831950000000000      8.483359999999999
H       0.938130000000000      0.980160000000000      8.792780000000000
H      -1.033390000000000     -2.903780000000000      8.949690000000000
H      -1.966590000000000     -1.408090000000000      8.577700000000000
H      -0.797140000000000     -2.060450000000000      7.375580000000000
H      -0.166010000000000     -1.852020000000000     11.098409999999999
H       0.617460000000000     -0.226200000000000     11.061940000000000
H      -1.136620000000000     -0.375530000000000     10.730600000000001

-C 0
6-31g(d,p)
****
-H 0
6-31g(d,p)
****
-Mg 0
6-31g(d,p)
****
-N 0
6-31+g(d,p)
****
-Na 0
6-31g(d,p)
****
-O 0
6-31+g(d,p)
****


