%chk=lowest10_c1_a2_speciation0_speciationDFT0_speciationDFT37b_rank05_E164.52.chk
%nprocshared=20
%mem=40GB
#p opt=loose PM7/gen scf=xqc 

lowest10_c1_a2_speciation0_speciationDFT0_speciationDFT37b_rank05_E164.52 DFT input

0 1
Mg     -0.154760000000000     -0.421730000000000      0.355620000000000
C      -0.420040000000000      1.756940000000000      2.665260000000000
C      -2.439740000000000      0.513030000000000      2.414490000000000
O      -1.350190000000000      1.154340000000000      1.786770000000000
C       0.235520000000000      0.786310000000000      3.646820000000000
C      -3.411130000000000      1.513450000000000      3.018760000000000
H       0.390050000000000      2.146390000000000      2.022850000000000
H      -0.841810000000000      2.649980000000000      3.167420000000000
H      -2.978740000000000     -0.040020000000000      1.614270000000000
H      -2.126730000000000     -0.261850000000000      3.144220000000000
H      -3.675640000000000      2.278560000000000      2.258690000000000
H      -4.331510000000000      0.985430000000000      3.342940000000000
H      -2.951950000000000      2.004020000000000      3.900250000000000
H       0.565840000000000     -0.133500000000000      3.124450000000000
H       1.120910000000000      1.272670000000000      4.107110000000000
H      -0.472060000000000      0.519070000000000      4.455470000000000
H       0.645140000000000     -2.640630000000000      1.434130000000000
C      -1.164890000000000     -3.132160000000000      0.320730000000000
C      -0.382380000000000     -2.256450000000000      1.277690000000000
C      -0.510250000000000     -3.138420000000000     -1.065740000000000
H      -1.192790000000000     -4.152740000000000      0.750630000000000
H      -2.202430000000000     -2.740830000000000      0.223580000000000
H      -0.591450000000000     -2.129090000000000     -1.520410000000000
H       0.566630000000000     -3.396740000000000     -0.985920000000000
C      -1.182030000000000     -4.159030000000000     -1.976010000000000
H      -0.904250000000000     -2.150430000000000      2.249690000000000
H      -1.054070000000000     -5.175510000000000     -1.546110000000000
H      -2.265340000000000     -3.939790000000000     -2.082820000000000
H      -0.708220000000000     -4.137510000000000     -2.979860000000000
C      -0.937850000000000     -0.082710000000000     -3.347090000000000
C      -1.876470000000000      0.203000000000000     -2.374000000000000
C      -1.262600000000000      1.046060000000000     -1.468470000000000
C      -0.012650000000000      1.210630000000000     -1.893920000000000
N       0.173800000000000      0.509410000000000     -3.095120000000000
C       1.076640000000000      2.007590000000000     -1.218780000000000
N       1.533120000000000      1.355220000000000      0.021130000000000
C       2.811780000000000      0.603520000000000     -0.014770000000000
H      -2.886400000000000     -0.186560000000000     -2.314970000000000
H      -1.084020000000000     -0.721630000000000     -4.203180000000000
H      -1.711200000000000      1.465200000000000     -0.583090000000000
H       0.677640000000000      3.013470000000000     -0.968020000000000
H       1.904520000000000      2.151960000000000     -1.931140000000000
C       3.989550000000000      1.547060000000000     -0.326070000000000
C       3.040960000000000      0.005110000000000      1.388250000000000
C       2.771590000000000     -0.557250000000000     -1.031640000000000
H       3.984490000000000      2.407030000000000      0.376830000000000
H       4.955710000000000      1.008270000000000     -0.219430000000000
H       3.953810000000000      1.931650000000000     -1.363060000000000
H       2.240990000000000     -0.720470000000000      1.641340000000000
H       4.011400000000000     -0.536070000000000      1.443670000000000
H       3.041540000000000      0.803480000000000      2.161270000000000
H       2.001300000000000     -1.306160000000000     -0.749920000000000
H       2.550080000000000     -0.191630000000000     -2.052650000000000
H       3.754780000000000     -1.076040000000000     -1.067720000000000
Na     -2.372810000000000      0.688650000000000     11.291520000000000
C      -4.465730000000000      1.448660000000000     13.665100000000001
C      -5.069570000000000     -0.539460000000000     12.669430000000000
O      -4.710650000000000      0.805140000000000     12.432740000000001
C      -4.085560000000000      2.899510000000000     13.404280000000000
C      -5.318790000000000     -1.231920000000000     11.336940000000000
H      -5.380130000000000      1.446770000000000     14.301270000000001
H      -3.616560000000000      0.966190000000000     14.200600000000000
H      -4.246670000000000     -1.084750000000000     13.185549999999999
H      -6.009890000000000     -0.597200000000000     13.263859999999999
H      -4.398680000000000     -1.208110000000000     10.714980000000001
H      -5.605560000000000     -2.290560000000000     11.512079999999999
H      -6.141360000000000     -0.723090000000000     10.790430000000001
H      -4.912350000000000      3.423340000000000     12.879090000000000
H      -3.889580000000000      3.415370000000000     14.368270000000001
H      -3.169060000000000      2.948410000000000     12.778689999999999
Na     -6.946230000000000      1.912210000000000     11.583690000000001
Mg     -1.355300000000000     -3.028670000000000      7.924270000000000
H      -2.300550000000000     -5.071090000000000      5.717500000000000
C      -0.135570000000000     -5.165240000000000      5.392190000000000
C      -1.405660000000000     -4.417890000000000      5.763070000000000
C       0.135960000000000     -6.372050000000000      6.301670000000000
H      -0.242650000000000     -5.519440000000000      4.345740000000000
H       0.727230000000000     -4.467240000000000      5.438610000000000
H      -0.716350000000000     -7.084500000000000      6.255990000000000
H       1.041280000000000     -6.885330000000000      5.914470000000000
C       0.400080000000000     -5.989410000000000      7.759650000000000
H      -1.542930000000000     -3.534580000000000      5.102480000000000
H      -0.505880000000000     -5.552760000000000      8.226190000000001
H       0.680220000000000     -6.901030000000000      8.330660000000000
H       1.237750000000000     -5.262860000000000      7.828530000000000
C      -2.652170000000000     -4.542880000000000     10.399150000000001
C      -2.495430000000000     -4.375430000000000     11.765309999999999
C      -1.577600000000000     -3.351620000000000     11.944730000000000
C      -1.198650000000000     -2.953230000000000     10.681830000000000
N      -1.862200000000000     -3.664370000000000      9.760809999999999
C      -0.199960000000000     -1.874050000000000     10.308280000000000
N       0.093110000000000     -1.946800000000000      8.861110000000000
C       1.071280000000000     -1.037120000000000      8.238390000000001
H      -2.995310000000000     -4.933750000000000     12.545180000000000
H      -3.302100000000000     -5.256280000000000      9.909350000000000
H      -1.218330000000000     -2.955000000000000     12.884230000000001
H      -0.639510000000000     -0.893140000000000     10.578350000000000
H       0.730360000000000     -2.046780000000000     10.880710000000001
C       2.476220000000000     -1.319710000000000      8.805920000000000
C       1.096360000000000     -1.306710000000000      6.723190000000000
C       0.686220000000000      0.433490000000000      8.477560000000000
H       2.754920000000000     -2.381690000000000      8.627010000000000
H       3.236010000000000     -0.670550000000000      8.321090000000000
H       2.519050000000000     -1.126960000000000      9.896900000000000
H       0.100470000000000     -1.111780000000000      6.272310000000000
H       1.842120000000000     -0.651290000000000      6.220050000000000
H       1.371320000000000     -2.362620000000000      6.517310000000000
H      -0.325820000000000      0.639900000000000      8.068410000000000
H       0.690190000000000      0.675410000000000      9.560330000000000
H       1.414280000000000      1.110640000000000      7.980600000000000

-C 0
6-31g(d,p)
****
-H 0
6-31g(d,p)
****
-Mg 0
6-31g(d,p)
****
-N 0
6-31+g(d,p)
****
-Na 0
6-31g(d,p)
****
-O 0
6-31+g(d,p)
****


