%chk=lowest10_c1_a2_speciation7_speciationDFT37b_speciationDFT37b_rank01_E187.12.chk
%nprocshared=20
%mem=40GB
#p opt=loose PM7/gen scf=xqc 

lowest10_c1_a2_speciation7_speciationDFT37b_speciationDFT37b_rank01_E187.12 DFT input

0 1
Mg     -0.368740000000000      0.350460000000000     -0.093360000000000
C      -0.593900000000000      0.918410000000000      3.042690000000000
C      -0.326620000000000      2.943870000000000      1.812930000000000
O       0.045110000000000      1.591400000000000      1.975120000000000
C      -2.117070000000000      0.869530000000000      2.931300000000000
C       0.232620000000000      3.821740000000000      2.920870000000000
H      -0.242940000000000     -0.128440000000000      2.992970000000000
H      -0.253300000000000      1.289540000000000      4.028010000000000
H       0.127260000000000      3.280170000000000      0.855050000000000
H      -1.419570000000000      3.080770000000000      1.680910000000000
H       1.322710000000000      3.637990000000000      3.024990000000000
H       0.063690000000000      4.888600000000000      2.666930000000000
H      -0.278390000000000      3.598750000000000      3.878920000000000
H      -2.422300000000000      0.578340000000000      1.906580000000000
H      -2.512140000000000      0.120830000000000      3.649550000000000
H      -2.557410000000000      1.854700000000000      3.181600000000000
H      -2.755820000000000      0.483010000000000     -1.113480000000000
C      -1.527100000000000      1.855130000000000     -2.280080000000000
C      -2.001310000000000      1.280380000000000     -0.961150000000000
C      -0.827330000000000      0.778330000000000     -3.117150000000000
H      -2.414940000000000      2.254230000000000     -2.809350000000000
H      -0.806930000000000      2.681570000000000     -2.086970000000000
H       0.114500000000000      0.471220000000000     -2.616050000000000
H      -1.475180000000000     -0.117900000000000     -3.217110000000000
C      -0.511450000000000      1.299870000000000     -4.513220000000000
H      -2.407490000000000      2.070400000000000     -0.298330000000000
H      -1.459310000000000      1.557330000000000     -5.032580000000000
H       0.134610000000000      2.201490000000000     -4.460570000000000
H       0.010800000000000      0.514340000000000     -5.098640000000000
C       2.762990000000000     -0.251630000000000     -2.220410000000000
C       2.616730000000000      0.845930000000000     -1.406020000000000
C       2.224750000000000      0.391410000000000     -0.158880000000000
C       2.113900000000000     -0.944070000000000     -0.222740000000000
N       2.471700000000000     -1.419900000000000     -1.493440000000000
C       1.663410000000000     -1.853570000000000      0.894050000000000
N       0.227430000000000     -1.694840000000000      1.175980000000000
C      -0.708420000000000     -2.709360000000000      0.629480000000000
H       2.764470000000000      1.877740000000000     -1.704600000000000
H       3.043960000000000     -0.235250000000000     -3.261600000000000
H       2.026670000000000      1.012420000000000      0.697180000000000
H       2.240710000000000     -1.610830000000000      1.811240000000000
H       1.911070000000000     -2.891840000000000      0.618460000000000
C      -0.416460000000000     -4.099110000000000      1.228290000000000
C      -2.134720000000000     -2.302260000000000      1.049250000000000
C      -0.661190000000000     -2.769210000000000     -0.912510000000000
H      -0.404360000000000     -4.040760000000000      2.337430000000000
H      -1.199020000000000     -4.825360000000000      0.919650000000000
H       0.550090000000000     -4.510550000000000      0.880600000000000
H      -2.411330000000000     -1.325390000000000      0.602410000000000
H      -2.884960000000000     -3.049330000000000      0.707440000000000
H      -2.208950000000000     -2.212540000000000      2.154470000000000
H      -0.977290000000000     -1.802120000000000     -1.358080000000000
H       0.355640000000000     -3.009980000000000     -1.276680000000000
H      -1.346890000000000     -3.558870000000000     -1.291350000000000
Na     -1.673300000000000     -0.650770000000000      9.890219999999999
C      -0.212720000000000      0.540500000000000      7.309640000000000
C      -0.713830000000000     -1.683250000000000      6.758720000000000
O      -0.348110000000000     -0.783530000000000      7.787820000000000
C      -1.542010000000000      1.284410000000000      7.387750000000000
C       0.518730000000000     -2.275750000000000      6.080310000000000
H       0.519240000000000      1.064430000000000      7.959940000000000
H       0.206860000000000      0.583470000000000      6.280730000000000
H      -1.290530000000000     -2.510790000000000      7.224300000000000
H      -1.388260000000000     -1.221460000000000      6.003580000000000
H       1.149780000000000     -2.810430000000000      6.820400000000000
H       0.198520000000000     -2.999400000000000      5.301850000000000
H       1.121780000000000     -1.479260000000000      5.597820000000000
H      -1.911160000000000      1.297980000000000      8.434740000000000
H      -1.402500000000000      2.330180000000000      7.043710000000000
H      -2.301550000000000      0.797690000000000      6.742670000000000
C      -4.521240000000000     -1.310710000000000      8.212770000000001
C      -4.863750000000000     -1.365080000000000     10.571870000000001
O      -3.935050000000000     -1.314580000000000      9.502599999999999
C      -5.391090000000000     -0.084420000000000      7.933570000000000
C      -5.693390000000000     -2.648610000000000     10.601020000000000
H      -3.681840000000000     -1.278400000000000      7.486790000000000
H      -5.059030000000000     -2.257480000000000      8.001390000000001
H      -4.266190000000000     -1.348180000000000     11.508710000000001
H      -5.500920000000000     -0.457590000000000     10.611720000000000
H      -5.024330000000000     -3.534510000000000     10.583030000000001
H      -6.298960000000000     -2.671980000000000     11.531129999999999
H      -6.393160000000000     -2.689870000000000      9.742050000000001
H      -4.814610000000000      0.845050000000000      8.124670000000000
H      -5.709590000000000     -0.098250000000000      6.870010000000000
H      -6.306830000000000     -0.093380000000000      8.558430000000000
Na      1.537570000000000     -1.772540000000000      8.893160000000000
C       0.433210000000000     -1.194220000000000     11.986390000000000
C      -0.185890000000000     -3.310660000000000     11.202769999999999
O       0.121750000000000     -1.976750000000000     10.852250000000000
C       1.099260000000000      0.094460000000000     11.520970000000000
C      -1.614600000000000     -3.447090000000000     11.724560000000000
H      -0.496450000000000     -0.922840000000000     12.531169999999999
H       1.147100000000000     -1.708160000000000     12.668659999999999
H      -0.104000000000000     -3.920110000000000     10.277279999999999
H       0.550470000000000     -3.739700000000000     11.917870000000001
H      -2.334090000000000     -3.067840000000000     10.970120000000000
H      -1.834970000000000     -4.516950000000000     11.922359999999999
H      -1.744210000000000     -2.883400000000000     12.669760000000000
H       0.426240000000000      0.648120000000000     10.831709999999999
H       1.327260000000000      0.739560000000000     12.395330000000000
H       2.046650000000000     -0.134930000000000     10.989890000000001
C       4.612580000000000     -2.234990000000000     10.046040000000000
C       4.589630000000000     -0.385410000000000      8.653890000000001
O       3.803910000000000     -1.354870000000000      9.303559999999999
C       3.709490000000000     -3.273830000000000     10.697380000000001
C       3.656970000000000      0.548980000000000      7.894920000000000
H       5.331460000000000     -2.769610000000000      9.384860000000000
H       5.149170000000000     -1.688870000000000     10.854020000000000
H       5.160140000000000      0.222230000000000      9.391980000000000
H       5.276750000000000     -0.861330000000000      7.918430000000000
H       2.956860000000000      1.040630000000000      8.603840000000000
H       4.243230000000000      1.330020000000000      7.367830000000000
H       3.066590000000000     -0.025310000000000      7.148310000000000
H       3.154850000000000     -3.840080000000000      9.918210000000000
H       4.313270000000000     -3.983830000000000     11.299530000000001
H       2.976910000000000     -2.772100000000000     11.362990000000000
Mg     -2.369890000000000     -0.756690000000000     18.765809999999998
C      -3.698540000000000     -2.812560000000000     16.665559999999999
C      -3.850450000000000     -0.563760000000000     15.893370000000001
O      -3.950590000000000     -1.456220000000000     16.985170000000000
C      -2.296340000000000     -3.076820000000000     16.115230000000000
C      -5.008790000000000     -0.716940000000000     14.917000000000000
H      -3.771050000000000     -3.370390000000000     17.619759999999999
H      -4.489490000000000     -3.237970000000000     16.016210000000001
H      -3.903430000000000      0.462440000000000     16.317380000000000
H      -2.866520000000000     -0.613370000000000     15.384679999999999
H      -5.971250000000000     -0.634610000000000     15.464680000000000
H      -4.953960000000000      0.086020000000000     14.153070000000000
H      -4.955380000000000     -1.695630000000000     14.399440000000000
H      -1.532340000000000     -2.599920000000000     16.759370000000001
H      -2.113500000000000     -4.171300000000000     16.088030000000000
H      -2.197070000000000     -2.690850000000000     15.082760000000000
H       0.167140000000000     -0.381120000000000     18.153089999999999
C      -0.724860000000000      1.601910000000000     18.250640000000001
C      -0.743080000000000      0.151580000000000     17.809339999999999
C      -0.742620000000000      1.693680000000000     19.780130000000000
H       0.188460000000000      2.075400000000000     17.835819999999998
H      -1.623720000000000      2.120530000000000     17.849139999999998
H      -1.705150000000000      1.293450000000000     20.165260000000000
H       0.084670000000000      1.091320000000000     20.212230000000002
C      -0.577880000000000      3.136770000000000     20.239000000000001
H      -0.834690000000000      0.070420000000000     16.707000000000001
H       0.405710000000000      3.524230000000000     19.897140000000000
H      -1.387630000000000      3.774890000000000     19.826309999999999
H      -0.611490000000000      3.182400000000000     21.347729999999999
C      -4.119150000000000      1.155600000000000     21.694250000000000
C      -4.575660000000000      1.182470000000000     20.396120000000000
C      -4.649640000000000     -0.127490000000000     19.957239999999999
C      -4.237410000000000     -0.924490000000000     20.948329999999999
N      -3.906870000000000     -0.173250000000000     22.093979999999998
C      -4.137410000000000     -2.426210000000000     20.895189999999999
N      -3.063230000000000     -2.866700000000000     19.986930000000001
C      -1.780050000000000     -3.289090000000000     20.602760000000000
H      -4.818040000000000      2.072930000000000     19.830190000000002
H      -3.941680000000000      2.019180000000000     22.318940000000001
H      -4.978160000000000     -0.443620000000000     18.979590000000002
H      -5.105470000000000     -2.832890000000000     20.532910000000001
H      -3.989200000000000     -2.805650000000000     21.919650000000001
C      -1.976020000000000     -4.551690000000000     21.467639999999999
C      -0.804910000000000     -3.647480000000000     19.464749999999999
C      -1.142620000000000     -2.156710000000000     21.435510000000001
H      -2.453000000000000     -5.355170000000000     20.866650000000000
H      -0.996530000000000     -4.922910000000000     21.838719999999999
H      -2.600700000000000     -4.360950000000000     22.360710000000001
H      -0.594660000000000     -2.760050000000000     18.834340000000001
H       0.167380000000000     -4.005990000000000     19.870069999999998
H      -1.228270000000000     -4.447060000000000     18.819230000000001
H      -0.936220000000000     -1.269420000000000     20.799969999999998
H      -1.799750000000000     -1.847940000000000     22.271210000000000
H      -0.178230000000000     -2.494040000000000     21.874410000000001

-C 0
6-31g(d,p)
****
-H 0
6-31g(d,p)
****
-Mg 0
6-31g(d,p)
****
-N 0
6-31+g(d,p)
****
-Na 0
6-31g(d,p)
****
-O 0
6-31+g(d,p)
****


