%chk=lowest10_c1_a2_speciation7_speciationDFT1_speciationDFT36_rank02_E222.62.chk
%nprocshared=20
%mem=40GB
#p opt=loose PM7/gen scf=xqc 

lowest10_c1_a2_speciation7_speciationDFT1_speciationDFT36_rank02_E222.62 DFT input

0 1
Mg     -0.674960000000000      0.453560000000000      0.088340000000000
C       1.472310000000000     -2.557000000000000     -0.581190000000000
C       0.879070000000000     -1.629430000000000     -2.607650000000000
O       0.421050000000000     -1.953720000000000     -1.310340000000000
C       0.903600000000000     -3.289970000000000      0.624400000000000
C      -0.216680000000000     -0.896850000000000     -3.370520000000000
H       2.018320000000000     -3.314500000000000     -1.186490000000000
H       2.186220000000000     -1.785100000000000     -0.226460000000000
H       1.774720000000000     -0.974680000000000     -2.566140000000000
H       1.128770000000000     -2.551080000000000     -3.174530000000000
H      -0.482210000000000      0.051120000000000     -2.860540000000000
H       0.136330000000000     -0.659240000000000     -4.396370000000000
H      -1.121420000000000     -1.535790000000000     -3.440600000000000
H       0.183880000000000     -4.067620000000000      0.297660000000000
H       1.726180000000000     -3.760940000000000      1.201580000000000
H       0.375620000000000     -2.594340000000000      1.291660000000000
H      -2.915980000000000     -0.428720000000000     -2.000130000000000
C      -3.187840000000000      1.566350000000000     -1.100450000000000
C      -2.862350000000000      0.080230000000000     -1.018260000000000
C      -2.240250000000000      2.303200000000000     -2.056960000000000
H      -4.234720000000000      1.663950000000000     -1.451910000000000
H      -3.099540000000000      2.015780000000000     -0.086010000000000
H      -1.196050000000000      2.260380000000000     -1.674900000000000
H      -2.271120000000000      1.824700000000000     -3.058880000000000
C      -2.653980000000000      3.765150000000000     -2.208820000000000
H      -3.487880000000000     -0.430870000000000     -0.259910000000000
H      -3.688780000000000      3.824880000000000     -2.609140000000000
H      -2.611890000000000      4.288130000000000     -1.229820000000000
H      -1.972260000000000      4.279790000000000     -2.918610000000000
C       1.848900000000000      1.383910000000000     -1.576450000000000
C       3.184380000000000      1.471700000000000     -1.225460000000000
C       3.274670000000000      1.083390000000000      0.103320000000000
C       1.997880000000000      0.761340000000000      0.501350000000000
N       1.152760000000000      0.937200000000000     -0.523380000000000
C       1.528010000000000      0.303850000000000      1.871040000000000
N       0.151380000000000     -0.240150000000000      1.804930000000000
C      -0.635180000000000     -0.371570000000000      3.048160000000000
H       3.997040000000000      1.784370000000000     -1.864700000000000
H       1.422880000000000      1.616640000000000     -2.546290000000000
H       4.168940000000000      1.030750000000000      0.708440000000000
H       2.201170000000000     -0.494250000000000      2.243590000000000
H       1.584580000000000      1.186900000000000      2.536880000000000
C      -1.074000000000000      1.007250000000000      3.572590000000000
C      -1.901030000000000     -1.200980000000000      2.745210000000000
C       0.189420000000000     -1.114600000000000      4.118030000000000
H      -1.711960000000000      1.523940000000000      2.823480000000000
H      -1.660670000000000      0.890290000000000      4.510180000000000
H      -0.204060000000000      1.652900000000000      3.802110000000000
H      -1.642210000000000     -2.214330000000000      2.373110000000000
H      -2.520780000000000     -1.325880000000000      3.661010000000000
H      -2.524080000000000     -0.699800000000000      1.975490000000000
H       0.516940000000000     -2.103970000000000      3.730440000000000
H       1.091880000000000     -0.532620000000000      4.397840000000000
H      -0.410060000000000     -1.278670000000000      5.038070000000000
Na     -9.718019999999999    -11.090990000000000     -3.959730000000000
C     -10.472740000000000     -8.130240000000001     -4.885380000000000
C      -9.762900000000000     -7.933030000000000     -2.658200000000000
O     -10.427090000000000     -8.741580000000001     -3.610680000000000
C      -9.242100000000001     -8.497870000000001     -5.708320000000000
C     -10.741640000000000     -7.003120000000000     -1.945520000000000
H     -11.371820000000000     -8.512300000000000     -5.413820000000000
H     -10.595250000000000     -7.025290000000000     -4.828020000000000
H      -9.306050000000001     -8.607490000000000     -1.902870000000000
H      -8.924590000000000     -7.350060000000000     -3.100100000000000
H     -11.530049999999999     -7.590130000000000     -1.430110000000000
H     -10.194710000000001     -6.404100000000000     -1.187510000000000
H     -11.220480000000000     -6.310190000000000     -2.667590000000000
H      -9.172440000000000     -9.599880000000001     -5.822600000000000
H      -9.319150000000000     -8.037879999999999     -6.715310000000000
H      -8.319020000000000     -8.126130000000000     -5.218890000000000
C      -6.504450000000000    -10.302970000000000     -3.360560000000000
C      -6.812400000000000    -12.662990000000001     -3.501220000000000
O      -7.417460000000000    -11.384620000000000     -3.416270000000000
C      -5.636690000000000    -10.163700000000000     -4.611650000000000
C      -5.974180000000000    -13.024290000000001     -2.275310000000000
H      -7.116940000000000     -9.379540000000000     -3.292370000000000
H      -5.896030000000000    -10.324059999999999     -2.433290000000000
H      -7.642130000000000    -13.400460000000001     -3.551410000000000
H      -6.245100000000000    -12.792520000000000     -4.446060000000000
H      -6.579530000000000    -12.904240000000000     -1.352310000000000
H      -5.644050000000000    -14.081090000000000     -2.355950000000000
H      -5.066360000000000    -12.390930000000001     -2.213720000000000
H      -6.276360000000000    -10.116849999999999     -5.517890000000000
H      -5.044800000000000     -9.228160000000001     -4.541860000000000
H      -4.922580000000000    -11.007210000000001     -4.698570000000000
Na    -12.504160000000001     -9.386440000000000     -2.613440000000000
C     -12.297599999999999    -12.593290000000000     -3.472490000000000
C     -11.412570000000001    -12.191330000000001     -1.343170000000000
O     -11.661519999999999    -11.656940000000001     -2.627460000000000
C     -12.858800000000000    -11.856270000000000     -4.682180000000000
C     -10.177140000000000    -13.089350000000000     -1.328070000000000
H     -11.560860000000000    -13.340439999999999     -3.837650000000000
H     -13.150449999999999    -13.102259999999999     -2.969690000000000
H     -11.215330000000000    -11.333959999999999     -0.664450000000000
H     -12.300380000000001    -12.715080000000000     -0.924930000000000
H      -9.292550000000000    -12.527590000000000     -1.692520000000000
H      -9.980639999999999    -13.428360000000000     -0.289380000000000
H     -10.331440000000001    -13.984940000000000     -1.963720000000000
H     -12.045040000000000    -11.324430000000000     -5.220270000000000
H     -13.336230000000000    -12.578569999999999     -5.377200000000000
H     -13.619850000000000    -11.115340000000000     -4.359750000000000
C     -15.754030000000000     -9.711710000000000     -2.047850000000000
C     -15.421519999999999     -8.219329999999999     -3.786910000000000
O     -14.807100000000000     -9.136630000000000     -2.915080000000000
C     -15.023009999999999    -10.668650000000000     -1.115570000000000
C     -14.351419999999999     -7.658770000000000     -4.714170000000000
H     -16.248020000000000     -8.932900000000000     -1.424050000000000
H     -16.507919999999999    -10.296590000000000     -2.621010000000000
H     -16.191420000000001     -8.722700000000000     -4.414040000000000
H     -15.866630000000001     -7.371480000000000     -3.219030000000000
H     -13.887160000000000     -8.483359999999999     -5.296400000000000
H     -14.799530000000001     -6.928190000000000     -5.419120000000000
H     -13.560969999999999     -7.150160000000000     -4.120610000000000
H     -14.258720000000000    -10.118040000000001     -0.525580000000000
H     -15.740420000000000    -11.149490000000000     -0.418940000000000
H     -14.515400000000000    -11.457689999999999     -1.708120000000000
Mg     -4.877780000000000     -5.240590000000000      1.813800000000000
H      -2.271520000000000     -6.643900000000000      0.948690000000000
C      -3.350220000000000     -6.574010000000000     -0.951920000000000
C      -3.298800000000000     -6.776220000000000      0.550980000000000
C      -2.486760000000000     -7.626930000000000     -1.640400000000000
H      -4.404610000000000     -6.660300000000000     -1.294340000000000
H      -2.981360000000000     -5.552460000000000     -1.191250000000000
H      -1.439100000000000     -7.536820000000000     -1.278990000000000
H      -2.870150000000000     -8.639490000000000     -1.386190000000000
C      -2.506610000000000     -7.453450000000000     -3.151600000000000
H      -3.718090000000000     -7.761590000000000      0.843750000000000
H      -3.543380000000000     -7.553810000000000     -3.535060000000000
H      -2.107680000000000     -6.454590000000000     -3.428540000000000
H      -1.872140000000000     -8.236810000000000     -3.615710000000000
C      -4.037100000000000     -4.727650000000000      4.827710000000000
C      -4.489610000000000     -3.817040000000000      5.768210000000000
C      -5.467400000000000     -3.051270000000000      5.151100000000000
C      -5.559480000000000     -3.516480000000000      3.857990000000000
N      -4.702240000000000     -4.530970000000000      3.678550000000000
C      -6.475670000000000     -3.018360000000000      2.754240000000000
N      -6.130530000000000     -3.677480000000000      1.476620000000000
C      -6.852220000000000     -3.360650000000000      0.231450000000000
H      -4.149780000000000     -3.723220000000000      6.790570000000000
H      -3.277190000000000     -5.483860000000000      4.978840000000000
H      -6.037950000000000     -2.244900000000000      5.590830000000000
H      -6.337660000000000     -1.925110000000000      2.654650000000000
H      -7.519520000000000     -3.250100000000000      3.049060000000000
C      -6.598050000000000     -1.892150000000000     -0.156760000000000
C      -6.314440000000000     -4.262440000000000     -0.894540000000000
C      -8.360700000000000     -3.617230000000000      0.393950000000000
H      -5.508690000000000     -1.716060000000000     -0.283540000000000
H      -7.107190000000000     -1.641970000000000     -1.111630000000000
H      -6.976960000000000     -1.197340000000000      0.619650000000000
H      -6.486740000000000     -5.333920000000000     -0.657000000000000
H      -6.825470000000000     -4.034880000000000     -1.856710000000000
H      -5.223880000000000     -4.104900000000000     -1.038350000000000
H      -8.543329999999999     -4.676440000000000      0.676220000000000
H      -8.794990000000000     -2.959690000000000      1.174540000000000
H      -8.895470000000000     -3.407480000000000     -0.557420000000000

-C 0
6-31g(d,p)
****
-H 0
6-31g(d,p)
****
-Mg 0
6-31g(d,p)
****
-N 0
6-31+g(d,p)
****
-Na 0
6-31g(d,p)
****
-O 0
6-31+g(d,p)
****


