%chk=lowest10_c1_a2_speciation0_speciationDFT37b_speciationDFT96_rank04_E168.93.chk
%nprocshared=20
%mem=40GB
#p opt=loose PM7/gen scf=xqc 

lowest10_c1_a2_speciation0_speciationDFT37b_speciationDFT96_rank04_E168.93 DFT input

0 1
Mg     -0.149080000000000     -0.227830000000000     -0.375270000000000
C      -2.415890000000000      2.044290000000000      1.010380000000000
C      -1.639940000000000      0.392330000000000      2.548130000000000
O      -1.450360000000000      1.053780000000000      1.311710000000000
C      -2.381160000000000      3.241400000000000      1.955220000000000
C      -2.931480000000000     -0.417940000000000      2.616620000000000
H      -2.168900000000000      2.420080000000000     -0.006110000000000
H      -3.437460000000000      1.625800000000000      0.934900000000000
H      -0.810600000000000     -0.336180000000000      2.644930000000000
H      -1.523940000000000      1.080390000000000      3.408510000000000
H      -3.007400000000000     -1.092400000000000      1.738660000000000
H      -2.926100000000000     -1.032120000000000      3.541160000000000
H      -3.814160000000000      0.250220000000000      2.653100000000000
H      -1.358910000000000      3.666530000000000      2.009570000000000
H      -3.072670000000000      4.021330000000000      1.572790000000000
H      -2.717940000000000      2.948540000000000      2.969060000000000
H      -2.126890000000000      0.770550000000000     -2.343160000000000
C      -3.371220000000000     -0.744980000000000     -1.354990000000000
C      -2.060730000000000     -0.258850000000000     -1.934470000000000
C      -4.413430000000000     -0.817710000000000     -2.457290000000000
H      -3.227340000000000     -1.747100000000000     -0.901180000000000
H      -3.702180000000000     -0.046570000000000     -0.562070000000000
H      -4.542210000000000      0.192240000000000     -2.904120000000000
H      -4.062340000000000     -1.521420000000000     -3.243190000000000
C      -5.746460000000000     -1.299100000000000     -1.907690000000000
H      -1.636030000000000     -0.974470000000000     -2.668560000000000
H      -5.634920000000000     -2.312430000000000     -1.466020000000000
H      -6.114880000000000     -0.597770000000000     -1.128670000000000
H      -6.483370000000000     -1.342680000000000     -2.734840000000000
C       4.648870000000000      0.774800000000000     -0.622950000000000
C       4.865750000000000     -0.556390000000000     -0.878520000000000
C       3.947870000000000     -1.281620000000000     -0.128420000000000
C       3.180850000000000     -0.419480000000000      0.550190000000000
N       3.597090000000000      0.900160000000000      0.288460000000000
C       2.065940000000000     -0.712280000000000      1.532640000000000
N       0.843060000000000     -1.322430000000000      0.978280000000000
C       0.679130000000000     -2.751980000000000      0.683760000000000
H       5.624170000000000     -0.945300000000000     -1.543960000000000
H       5.193320000000000      1.608760000000000     -1.046610000000000
H       3.895290000000000     -2.357010000000000     -0.104470000000000
H       1.745000000000000      0.273260000000000      1.934100000000000
H       2.443710000000000     -1.283750000000000      2.398170000000000
C       1.546640000000000     -3.610490000000000      1.607200000000000
C      -0.800530000000000     -3.102570000000000      0.936250000000000
C       0.971500000000000     -3.031520000000000     -0.805010000000000
H       1.298250000000000     -3.376590000000000      2.665880000000000
H       1.363460000000000     -4.687520000000000      1.423280000000000
H       2.619720000000000     -3.404400000000000      1.439450000000000
H      -1.460140000000000     -2.484580000000000      0.294440000000000
H      -1.005360000000000     -4.170600000000000      0.707470000000000
H      -1.081050000000000     -2.905390000000000      1.992770000000000
H       0.263410000000000     -2.478400000000000     -1.461700000000000
H       1.985450000000000     -2.726540000000000     -1.098810000000000
H       0.860640000000000     -4.114910000000000     -1.023680000000000
C       1.485310000000000      1.954160000000000     -1.968490000000000
C       1.046220000000000      2.806310000000000      0.188550000000000
O       0.634420000000000      1.927040000000000     -0.839290000000000
C       1.606610000000000      0.550090000000000     -2.565700000000000
C       0.684610000000000      4.239910000000000     -0.138230000000000
H       1.034200000000000      2.620630000000000     -2.730730000000000
H       2.512290000000000      2.309910000000000     -1.736950000000000
H       0.530230000000000      2.507760000000000      1.122640000000000
H       2.119990000000000      2.734360000000000      0.425610000000000
H      -0.404790000000000      4.318630000000000     -0.330350000000000
H       0.960360000000000      4.886540000000000      0.720160000000000
H       1.248920000000000      4.565890000000000     -1.035190000000000
H       2.060680000000000     -0.153860000000000     -1.845030000000000
H       0.613080000000000      0.149630000000000     -2.850600000000000
H       2.249000000000000      0.579740000000000     -3.469720000000000
Na      6.461660000000000      5.822260000000000     11.084230000000000
C       4.011910000000000      4.510530000000000      9.339119999999999
C       5.906490000000000      3.211790000000000      9.169840000000001
O       5.396920000000000      4.523610000000000      9.065989999999999
C       3.466230000000000      5.925660000000000      9.209379999999999
C       7.401390000000000      3.230890000000000      8.885890000000000
H       3.468790000000000      3.868250000000000      8.608400000000000
H       3.818300000000000      4.165160000000000     10.380250000000000
H       5.760390000000000      2.809690000000000     10.198539999999999
H       5.430720000000000      2.546800000000000      8.416060000000000
H       7.922290000000000      3.882450000000000      9.619190000000000
H       7.810920000000000      2.201360000000000      8.965230000000000
H       7.590410000000000      3.614010000000000      7.860540000000000
H       3.629920000000000      6.305750000000000      8.178520000000001
H       2.376670000000000      5.929610000000000      9.424540000000000
H       3.976730000000000      6.599850000000000      9.929679999999999
Na      5.520300000000000      5.023350000000000      6.480540000000000
Mg      2.523930000000000     -1.305580000000000      9.240610000000000
C       0.730170000000000     -0.150920000000000     11.651980000000000
C       2.663690000000000     -1.280300000000000     12.467409999999999
O       1.602280000000000     -1.260010000000000     11.534530000000000
C       1.409170000000000      1.205140000000000     11.453279999999999
C       2.183640000000000     -1.603750000000000     13.875109999999999
H      -0.007320000000000     -0.255080000000000     10.832509999999999
H       0.135940000000000     -0.189470000000000     12.586710000000000
H       3.347600000000000     -2.097600000000000     12.151080000000000
H       3.281870000000000     -0.360260000000000     12.437569999999999
H       1.588210000000000     -2.540850000000000     13.860300000000001
H       3.061330000000000     -1.739630000000000     14.540340000000000
H       1.565950000000000     -0.774570000000000     14.274279999999999
H       2.036240000000000      1.193820000000000     10.540450000000000
H       0.632280000000000      1.990760000000000     11.346570000000000
H       2.037570000000000      1.465250000000000     12.327550000000000
H       4.315610000000000      0.480500000000000      8.559870000000000
C       5.427850000000000     -1.343250000000000      8.968059999999999
C       4.364920000000000     -0.322520000000000      9.321059999999999
C       5.085660000000000     -2.030840000000000      7.641990000000000
H       6.400870000000000     -0.815000000000000      8.901289999999999
H       5.479630000000000     -2.113370000000000      9.769590000000001
H       4.154120000000000     -2.624750000000000      7.760630000000000
H       4.918500000000000     -1.273600000000000      6.846630000000000
C       6.216360000000000     -2.950670000000000      7.200400000000000
H       4.544250000000000      0.113790000000000     10.324800000000000
H       7.136930000000000     -2.351460000000000      7.033550000000000
H       6.416410000000000     -3.724860000000000      7.970990000000000
H       5.940880000000000     -3.451000000000000      6.248390000000000
C       2.313300000000000     -4.784530000000000      7.572620000000000
C       2.471360000000000     -4.630390000000000      8.936930000000000
C       1.504180000000000     -3.733920000000000      9.348870000000000
C       0.833710000000000     -3.376960000000000      8.258020000000000
N       1.342590000000000     -4.061080000000000      7.142900000000000
C      -0.308490000000000     -2.395860000000000      8.183550000000000
N       0.145000000000000     -1.018160000000000      8.445480000000000
C       0.319980000000000     -0.122730000000000      7.274440000000000
H       3.219020000000000     -5.108300000000000      9.559290000000001
H       2.910210000000000     -5.412080000000000      6.929960000000000
H       1.336460000000000     -3.390390000000000     10.356590000000001
H      -1.066140000000000     -2.677470000000000      8.945309999999999
H      -0.788530000000000     -2.488950000000000      7.195390000000000
C      -1.031650000000000      0.137010000000000      6.578520000000000
C       0.851160000000000      1.230010000000000      7.788900000000000
C       1.346730000000000     -0.685650000000000      6.268230000000000
H      -1.771570000000000      0.519800000000000      7.313470000000000
H      -0.911490000000000      0.893470000000000      5.774580000000000
H      -1.444320000000000     -0.772490000000000      6.101800000000000
H       1.845670000000000      1.106990000000000      8.263550000000000
H       0.968350000000000      1.957160000000000      6.954870000000000
H       0.155990000000000      1.668560000000000      8.537010000000000
H       2.342180000000000     -0.802630000000000      6.747020000000000
H       1.029320000000000     -1.668820000000000      5.869890000000000
H       1.461900000000000      0.004790000000000      5.403980000000000

-C 0
6-31g(d,p)
****
-H 0
6-31g(d,p)
****
-Mg 0
6-31g(d,p)
****
-N 0
6-31+g(d,p)
****
-Na 0
6-31g(d,p)
****
-O 0
6-31+g(d,p)
****


