%chk=lowest10_c1_a2_speciation7_speciationDFT2_speciationDFT2_rank04_E221.58.chk
%nprocshared=20
%mem=40GB
#p opt=loose PM7/gen scf=xqc 

lowest10_c1_a2_speciation7_speciationDFT2_speciationDFT2_rank04_E221.58 DFT input

0 1
Mg      0.352570000000000      0.537070000000000      0.738700000000000
H      -1.987820000000000      0.792100000000000      2.679070000000000
C      -1.809420000000000      2.865010000000000      1.969850000000000
C      -1.211590000000000      1.553300000000000      2.460240000000000
C      -2.533740000000000      2.742560000000000      0.618940000000000
H      -2.503250000000000      3.249800000000000      2.745560000000000
H      -0.981710000000000      3.595990000000000      1.842050000000000
H      -2.939010000000000      3.744700000000000      0.362080000000000
H      -1.815770000000000      2.447900000000000     -0.175580000000000
C      -3.689390000000000      1.743680000000000      0.630250000000000
H      -0.577700000000000      1.710280000000000      3.356610000000000
H      -3.313020000000000      0.710860000000000      0.783530000000000
H      -4.415630000000000      1.999060000000000      1.429690000000000
H      -4.209900000000000      1.772550000000000     -0.350580000000000
C       0.546600000000000      2.206670000000000     -1.955090000000000
C       0.988770000000000      1.861080000000000     -3.223570000000000
C       1.364150000000000      0.528290000000000     -3.163430000000000
C       1.120310000000000      0.111510000000000     -1.876470000000000
N       0.637960000000000      1.141560000000000     -1.153480000000000
C       1.348730000000000     -1.260380000000000     -1.279250000000000
N       0.718090000000000     -1.343390000000000      0.054510000000000
C       0.775340000000000     -2.586820000000000      0.843590000000000
H       1.037790000000000      2.504880000000000     -4.088780000000000
H       0.187590000000000      3.183870000000000     -1.647890000000000
H       1.761230000000000     -0.074900000000000     -3.971440000000000
H       2.445450000000000     -1.420040000000000     -1.214070000000000
H       0.890680000000000     -2.013540000000000     -1.948510000000000
C       2.231170000000000     -3.035210000000000      1.067100000000000
C       0.116500000000000     -2.334820000000000      2.212600000000000
C      -0.015800000000000     -3.692870000000000      0.118190000000000
H       2.805330000000000     -2.240140000000000      1.589110000000000
H       2.262010000000000     -3.958270000000000      1.685590000000000
H       2.731090000000000     -3.263600000000000      0.103580000000000
H      -0.936460000000000     -2.000940000000000      2.089260000000000
H       0.114890000000000     -3.265620000000000      2.823040000000000
H       0.666390000000000     -1.551850000000000      2.777440000000000
H      -1.069730000000000     -3.371530000000000     -0.034370000000000
H       0.425700000000000     -3.921720000000000     -0.872670000000000
H      -0.016270000000000     -4.632570000000000      0.710040000000000
Na     -5.143170000000000      9.078970000000000     -2.857910000000000
C      -8.127540000000000     10.240510000000000     -2.819080000000000
C      -8.353009999999999      8.015490000000000     -2.112130000000000
O      -7.644160000000000      8.916670000000000     -2.941460000000000
C      -7.388700000000000     10.986950000000000     -1.712910000000000
C      -9.553500000000000      7.420760000000000     -2.844280000000000
H      -7.936340000000000     10.762350000000000     -3.780540000000000
H      -9.228520000000000     10.284369999999999     -2.658390000000000
H      -7.661130000000000      7.189240000000000     -1.842640000000000
H      -8.673060000000000      8.476770000000000     -1.151220000000000
H      -9.225600000000000      6.887950000000000     -3.760580000000000
H     -10.067280000000000      6.694300000000000     -2.180710000000000
H     -10.273999999999999      8.215990000000000     -3.126090000000000
H      -6.298260000000000     10.997880000000000     -1.920120000000000
H      -7.753690000000000     12.033910000000001     -1.663750000000000
H      -7.565300000000000     10.502879999999999     -0.730750000000000
C      -5.190160000000000      8.386939999999999      0.460640000000000
C      -2.977160000000000      8.330460000000000     -0.421200000000000
O      -4.367240000000000      8.380470000000001     -0.692630000000000
C      -4.997400000000000      9.616479999999999      1.349590000000000
C      -2.536950000000000      7.044480000000000      0.278970000000000
H      -6.238970000000000      8.416340000000000      0.097820000000000
H      -5.102490000000000      7.442170000000000      1.035130000000000
H      -2.463500000000000      8.351369999999999     -1.406230000000000
H      -2.625160000000000      9.236750000000001      0.113440000000000
H      -2.883270000000000      6.162270000000000     -0.298390000000000
H      -1.428950000000000      7.021990000000000      0.342850000000000
H      -2.934110000000000      6.995980000000000      1.312920000000000
H      -5.122830000000000     10.544000000000000      0.752220000000000
H      -5.757210000000000      9.603400000000001      2.159010000000000
H      -3.997740000000000      9.611300000000000      1.828870000000000
Na     -7.636620000000000      7.902580000000000     -5.127880000000000
C      -4.399200000000000      8.503550000000001     -5.722650000000000
C      -4.766340000000000      6.385770000000000     -4.797670000000000
O      -5.224900000000000      7.719790000000000     -4.886200000000000
C      -5.134580000000000      9.792970000000000     -6.065310000000000
C      -3.601840000000000      6.248670000000000     -3.819140000000000
H      -3.462150000000000      8.774050000000001     -5.190410000000000
H      -4.166290000000000      7.990500000000000     -6.682810000000000
H      -5.608960000000000      5.774350000000000     -4.409420000000000
H      -4.512470000000000      5.958550000000000     -5.793220000000000
H      -3.897700000000000      6.629570000000000     -2.820000000000000
H      -3.322270000000000      5.178430000000000     -3.724830000000000
H      -2.715770000000000      6.810260000000000     -4.179010000000000
H      -5.389350000000000     10.349589999999999     -5.138090000000000
H      -4.492880000000000     10.434620000000001     -6.704380000000000
H      -6.070750000000000      9.563920000000000     -6.615920000000000
C      -8.170470000000000      7.463040000000000     -8.373900000000001
C      -9.363260000000000      9.312329999999999     -7.658060000000000
O      -8.406480000000000      8.344010000000001     -7.302220000000000
C      -7.155730000000000      6.422600000000000     -7.919720000000000
C      -9.555470000000000     10.247730000000001     -6.472150000000000
H      -9.103660000000000      6.929520000000000     -8.664429999999999
H      -7.739900000000000      8.008490000000000     -9.243470000000000
H      -9.010270000000000      9.919560000000001     -8.521870000000000
H     -10.343400000000001      8.835240000000001     -7.884810000000000
H      -8.592210000000000     10.740940000000000     -6.220520000000000
H     -10.306050000000001     11.027360000000000     -6.717990000000000
H      -9.906820000000000      9.673930000000000     -5.587270000000000
H      -7.552420000000000      5.856850000000000     -7.049180000000000
H      -6.939700000000000      5.712430000000000     -8.744540000000001
H      -6.211360000000000      6.922620000000000     -7.620370000000000
Mg     -4.025760000000000     16.480070000000001     -3.392810000000000
H      -5.679230000000000     17.614570000000001     -1.040380000000000
C      -6.804670000000000     18.412780000000001     -2.745360000000000
C      -5.501650000000000     18.104120000000002     -2.019370000000000
C      -7.599150000000000     17.156040000000001     -3.136450000000000
H      -7.423940000000000     19.073850000000000     -2.103640000000000
H      -6.557180000000000     18.961290000000002     -3.680030000000000
H      -8.522950000000000     17.489030000000000     -3.657900000000000
H      -7.008630000000000     16.535850000000000     -3.843740000000000
C      -8.004619999999999     16.292149999999999     -1.942850000000000
H      -4.909790000000000     19.029029999999999     -1.862870000000000
H      -7.110340000000000     15.858930000000001     -1.448830000000000
H      -8.582459999999999     16.891390000000001     -1.208450000000000
H      -8.637259999999999     15.450340000000001     -2.295870000000000
C      -5.347370000000000     15.557100000000000     -6.126500000000000
C      -5.086060000000000     14.484439999999999     -6.963650000000000
C      -4.056080000000000     13.761089999999999     -6.381640000000000
C      -3.747300000000000     14.409570000000000     -5.206720000000000
N      -4.522000000000000     15.497330000000000     -5.071610000000000
C      -2.699260000000000     14.028639999999999     -4.178680000000000
N      -2.866890000000000     14.858680000000000     -2.966620000000000
C      -1.977830000000000     14.696809999999999     -1.803290000000000
H      -5.585550000000000     14.257099999999999     -7.895010000000000
H      -6.089950000000000     16.329400000000000     -6.285090000000000
H      -3.594800000000000     12.860849999999999     -6.765020000000000
H      -1.700150000000000     14.181609999999999     -4.637080000000000
H      -2.839500000000000     12.962990000000000     -3.914110000000000
C      -0.504930000000000     14.908530000000001     -2.197710000000000
C      -2.366350000000000     15.745550000000000     -0.745420000000000
C      -2.170210000000000     13.293550000000000     -1.195320000000000
H      -0.362640000000000     15.919340000000000     -2.636260000000000
H       0.152290000000000     14.814060000000000     -1.306120000000000
H      -0.175510000000000     14.149110000000000     -2.936140000000000
H      -3.429000000000000     15.624810000000000     -0.442670000000000
H      -1.732120000000000     15.640269999999999      0.162820000000000
H      -2.233440000000000     16.774200000000000     -1.144150000000000
H      -3.234170000000000     13.142820000000000     -0.907990000000000
H      -1.887400000000000     12.499260000000000     -1.915730000000000
H      -1.540480000000000     13.166359999999999     -0.289120000000000

-C 0
6-31g(d,p)
****
-H 0
6-31g(d,p)
****
-Mg 0
6-31g(d,p)
****
-N 0
6-31+g(d,p)
****
-Na 0
6-31g(d,p)
****
-O 0
6-31+g(d,p)
****


