%chk=lowest10_c1_a2_speciation0_speciationDFT36_speciationDFT37b_rank07_E165.27.chk
%nprocshared=20
%mem=40GB
#p opt=loose PM7/gen scf=xqc 

lowest10_c1_a2_speciation0_speciationDFT36_speciationDFT37b_rank07_E165.27 DFT input

0 1
Mg     -0.226400000000000     -0.296670000000000     -0.336610000000000
C       2.022630000000000     -2.474700000000000      0.256440000000000
C      -0.156060000000000     -3.442760000000000      0.323620000000000
O       0.669610000000000     -2.344500000000000      0.646750000000000
C       2.226860000000000     -2.662300000000000     -1.246480000000000
C       0.148370000000000     -4.652120000000000      1.192100000000000
H       2.503830000000000     -1.515460000000000      0.519270000000000
H       2.556640000000000     -3.237180000000000      0.857290000000000
H      -1.198680000000000     -3.123590000000000      0.542180000000000
H      -0.147600000000000     -3.689770000000000     -0.757920000000000
H       0.150940000000000     -4.349720000000000      2.260520000000000
H      -0.629370000000000     -5.427090000000000      1.032250000000000
H       1.135700000000000     -5.076220000000000      0.920300000000000
H       1.609930000000000     -1.939630000000000     -1.816570000000000
H       3.295620000000000     -2.492450000000000     -1.494050000000000
H       1.961190000000000     -3.694350000000000     -1.548830000000000
H      -0.700700000000000     -0.308570000000000     -2.886720000000000
C      -2.633430000000000     -0.588090000000000     -1.915430000000000
C      -1.161110000000000     -0.906460000000000     -2.075240000000000
C      -2.828810000000000      0.877640000000000     -1.510840000000000
H      -3.127330000000000     -0.801260000000000     -2.883860000000000
H      -3.069900000000000     -1.238150000000000     -1.124250000000000
H      -2.420890000000000      1.039790000000000     -0.491370000000000
H      -2.288890000000000      1.549280000000000     -2.210980000000000
C      -4.305710000000000      1.251250000000000     -1.530650000000000
H      -0.997390000000000     -1.987650000000000     -2.255220000000000
H      -4.699540000000000      1.138750000000000     -2.563470000000000
H      -4.886560000000000      0.600200000000000     -0.843800000000000
H      -4.430390000000000      2.309190000000000     -1.217900000000000
C      -2.098720000000000      1.928380000000000      2.106050000000000
C      -2.077750000000000      0.553640000000000      2.241540000000000
C      -0.754190000000000      0.168430000000000      2.156540000000000
C      -0.050640000000000      1.279210000000000      1.952020000000000
N      -0.910130000000000      2.388410000000000      1.944590000000000
C       1.440200000000000      1.380960000000000      1.740030000000000
N       1.838030000000000      0.828510000000000      0.432830000000000
C       2.133330000000000      1.779300000000000     -0.667440000000000
H      -2.936460000000000     -0.098210000000000      2.355830000000000
H      -2.976450000000000      2.553940000000000      2.114550000000000
H      -0.378840000000000     -0.839350000000000      2.222040000000000
H       1.952930000000000      0.808110000000000      2.541800000000000
H       1.743060000000000      2.434910000000000      1.845970000000000
C       3.347510000000000      2.659790000000000     -0.314560000000000
C       2.495360000000000      0.950560000000000     -1.917130000000000
C       0.913950000000000      2.660690000000000     -1.012710000000000
H       4.207250000000000      2.021650000000000     -0.019110000000000
H       3.647460000000000      3.274400000000000     -1.190630000000000
H       3.126150000000000      3.366230000000000      0.507910000000000
H       1.633680000000000      0.332020000000000     -2.241750000000000
H       2.774340000000000      1.606820000000000     -2.771160000000000
H       3.349050000000000      0.271350000000000     -1.705460000000000
H       0.068260000000000      2.042510000000000     -1.381910000000000
H       0.570670000000000      3.236990000000000     -0.132290000000000
H       1.175930000000000      3.390860000000000     -1.809840000000000
Na      0.723410000000000     13.251070000000000      5.825950000000000
C       1.905010000000000     10.392460000000000      6.920620000000000
C      -0.398060000000000     10.378700000000000      6.952500000000000
O       0.754360000000000     11.099629999999999      7.331710000000000
C       3.143950000000000     11.168369999999999      7.344730000000000
C      -1.636590000000000     11.148800000000000      7.386930000000000
H       1.949300000000000      9.389880000000000      7.404720000000000
H       1.930620000000000     10.291190000000000      5.811710000000000
H      -0.443670000000000     10.257110000000001      5.846050000000000
H      -0.424420000000000      9.388590000000001      7.458170000000000
H      -1.656840000000000     12.147190000000000      6.900770000000000
H      -2.548970000000000     10.587479999999999      7.092980000000000
H      -1.636750000000000     11.280970000000000      8.489780000000000
H       3.163490000000000     11.283580000000001      8.449339999999999
H       4.056850000000000     10.622870000000001      7.024470000000000
H       3.144000000000000     12.174970000000000      6.874900000000000
Na      0.783300000000000     10.870220000000000      9.955819999999999
Mg      0.176620000000000      4.134860000000000      7.175270000000000
C       1.438170000000000      3.821240000000000     10.818479999999999
C      -0.866400000000000      3.880170000000000     10.876460000000000
O       0.285640000000000      4.432660000000000     10.273750000000000
C       2.656570000000000      4.680110000000000     10.517440000000001
C      -2.110790000000000      4.451490000000000     10.211700000000000
H       1.378070000000000      3.729300000000000     11.926640000000001
H       1.587540000000000      2.816870000000000     10.368470000000000
H      -0.888740000000000      2.774130000000000     10.762729999999999
H      -0.905790000000000      4.146060000000000     11.955209999999999
H      -2.122130000000000      4.201380000000000      9.131570000000000
H      -3.019330000000000      4.023360000000000     10.685770000000000
H      -2.130360000000000      5.555290000000000     10.328040000000000
H       2.533320000000000      5.688500000000000     10.963160000000000
H       3.567850000000000      4.201250000000000     10.932140000000000
H       2.791040000000000      4.794520000000000      9.430389999999999
H      -1.869070000000000      6.611800000000000      7.964830000000000
C      -1.985960000000000      5.818330000000000      5.925530000000000
C      -1.199920000000000      6.286800000000000      7.142830000000000
C      -2.886530000000000      4.625460000000000      6.268320000000000
H      -2.600480000000000      6.668790000000000      5.564080000000000
H      -1.273210000000000      5.519660000000000      5.124960000000000
H      -2.266670000000000      3.755190000000000      6.576820000000000
H      -3.564360000000000      4.894110000000000      7.106550000000000
C      -3.738340000000000      4.225740000000000      5.067490000000000
H      -0.499870000000000      7.099910000000000      6.866460000000000
H      -4.382760000000000      5.077040000000000      4.760200000000000
H      -3.092670000000000      3.930910000000000      4.214290000000000
H      -4.390260000000000      3.368290000000000      5.337440000000000
C      -1.024990000000000      1.495270000000000      8.451610000000001
C      -0.429760000000000      0.294260000000000      8.793139999999999
C       0.913650000000000      0.401240000000000      8.462529999999999
C       1.083550000000000      1.671310000000000      7.953660000000000
N      -0.088550000000000      2.314850000000000      7.948110000000000
C       2.361390000000000      2.313050000000000      7.436500000000000
N       2.178130000000000      3.775550000000000      7.268140000000000
C       3.110150000000000      4.527150000000000      6.405390000000000
H      -0.921070000000000     -0.563920000000000      9.231370000000000
H      -2.069620000000000      1.752520000000000      8.572139999999999
H       1.676150000000000     -0.353710000000000      8.591379999999999
H       3.171970000000000      2.152240000000000      8.176200000000000
H       2.622080000000000      1.813300000000000      6.482710000000000
C       2.848720000000000      4.216750000000000      4.921530000000000
C       2.877920000000000      6.034930000000000      6.636770000000000
C       4.570300000000000      4.197910000000000      6.777970000000000
H       1.806440000000000      4.489120000000000      4.648140000000000
H       3.543180000000000      4.801550000000000      4.279350000000000
H       3.003500000000000      3.143150000000000      4.696710000000000
H       3.059450000000000      6.313410000000000      7.696120000000000
H       3.565070000000000      6.641730000000000      6.006660000000000
H       1.835240000000000      6.317580000000000      6.380890000000000
H       4.751760000000000      4.418010000000000      7.852830000000000
H       4.797040000000000      3.126770000000000      6.597360000000000
H       5.278460000000000      4.802790000000000      6.172720000000000

-C 0
6-31g(d,p)
****
-H 0
6-31g(d,p)
****
-Mg 0
6-31g(d,p)
****
-N 0
6-31+g(d,p)
****
-Na 0
6-31g(d,p)
****
-O 0
6-31+g(d,p)
****


