%chk=lowest10_c1_a2_speciation7_speciationDFT1_speciationDFT37b_rank07_E206.53.chk
%nprocshared=20
%mem=40GB
#p opt=loose PM7/gen scf=xqc 

lowest10_c1_a2_speciation7_speciationDFT1_speciationDFT37b_rank07_E206.53 DFT input

0 1
Mg     -0.107210000000000     -0.522260000000000     -0.067590000000000
C      -3.121440000000000      0.419760000000000      0.378600000000000
C      -2.868510000000000     -0.706210000000000     -1.708300000000000
O      -2.330540000000000      0.205330000000000     -0.774330000000000
C      -3.386580000000000     -0.840830000000000      1.201780000000000
C      -4.067510000000000     -0.123970000000000     -2.438140000000000
H      -2.532690000000000      1.096200000000000      1.024100000000000
H      -4.048690000000000      0.980530000000000      0.147810000000000
H      -2.070700000000000     -0.888820000000000     -2.461230000000000
H      -3.087540000000000     -1.700800000000000     -1.268220000000000
H      -3.805440000000000      0.876640000000000     -2.841980000000000
H      -4.352610000000000     -0.794530000000000     -3.274870000000000
H      -4.926420000000000     -0.033310000000000     -1.744190000000000
H      -2.451250000000000     -1.419130000000000      1.338750000000000
H      -3.775650000000000     -0.550300000000000      2.200090000000000
H      -4.146250000000000     -1.477270000000000      0.706380000000000
H       0.120220000000000     -2.940950000000000      0.845260000000000
C       0.844470000000000     -3.005020000000000     -1.210790000000000
C      -0.167660000000000     -2.586210000000000     -0.164350000000000
C       2.211350000000000     -2.372560000000000     -0.924320000000000
H       0.907190000000000     -4.110900000000000     -1.190140000000000
H       0.499780000000000     -2.670800000000000     -2.215020000000000
H       2.147310000000000     -1.272280000000000     -1.056370000000000
H       2.523340000000000     -2.578350000000000      0.121210000000000
C       3.273540000000000     -2.934170000000000     -1.861130000000000
H      -1.185700000000000     -2.942030000000000     -0.419980000000000
H       3.373630000000000     -4.027410000000000     -1.690070000000000
H       2.999960000000000     -2.752530000000000     -2.921890000000000
H       4.251860000000000     -2.452550000000000     -1.652490000000000
C       2.777050000000000      1.322780000000000     -1.778780000000000
C       1.560270000000000      1.116710000000000     -2.388570000000000
C       0.581310000000000      1.523600000000000     -1.500170000000000
C       1.179720000000000      1.939970000000000     -0.377800000000000
N       2.581820000000000      1.868730000000000     -0.501990000000000
C       0.498760000000000      2.422260000000000      0.876330000000000
N      -0.171310000000000      1.318030000000000      1.585980000000000
C       0.508120000000000      0.732420000000000      2.767900000000000
H       1.411240000000000      0.693270000000000     -3.373600000000000
H       3.743150000000000      1.090610000000000     -2.202360000000000
H      -0.481360000000000      1.484830000000000     -1.684570000000000
H      -0.259770000000000      3.186700000000000      0.602770000000000
H       1.246820000000000      2.918610000000000      1.514230000000000
C       0.664850000000000      1.783590000000000      3.883850000000000
C      -0.388640000000000     -0.400950000000000      3.305640000000000
C       1.881430000000000      0.127000000000000      2.406240000000000
H      -0.317170000000000      2.252620000000000      4.105560000000000
H       1.048740000000000      1.308380000000000      4.812090000000000
H       1.387820000000000      2.576460000000000      3.613190000000000
H      -0.493540000000000     -1.208860000000000      2.552780000000000
H       0.041970000000000     -0.855650000000000      4.225100000000000
H      -1.403560000000000     -0.018110000000000      3.546960000000000
H       1.769920000000000     -0.711400000000000      1.686280000000000
H       2.552810000000000      0.886380000000000      1.962250000000000
H       2.382610000000000     -0.269790000000000      3.316430000000000
Na    -11.252470000000001    -10.777730000000000     -5.412920000000000
C     -12.007389999999999     -7.817350000000000     -6.339190000000000
C     -11.297570000000000     -7.620170000000000     -4.111990000000000
O     -11.961790000000001     -8.428680000000000     -5.064480000000000
C     -10.776710000000000     -8.184920000000000     -7.162090000000000
C     -12.276249999999999     -6.690190000000000     -3.399330000000000
H     -12.906430000000000     -8.199450000000001     -6.867670000000000
H     -12.129960000000001     -6.712410000000000     -6.281810000000000
H     -10.840769999999999     -8.294650000000001     -3.356650000000000
H     -10.459220000000000     -7.037260000000000     -4.553880000000000
H     -13.064660000000000     -7.277140000000000     -2.883850000000000
H     -11.729260000000000     -6.091140000000000     -2.641380000000000
H     -12.755089999999999     -5.997270000000000     -4.121410000000000
H     -10.707020000000000     -9.286930000000000     -7.276440000000000
H     -10.853719999999999     -7.724860000000000     -8.169050000000000
H      -9.853650000000000     -7.813200000000000     -6.672610000000000
C      -8.039110000000001     -9.990000000000000     -4.814380000000000
C      -8.347040000000000    -12.350030000000000     -4.955060000000000
O      -8.952090000000000    -11.071669999999999     -4.870130000000000
C      -7.171280000000000     -9.850740000000000     -6.065420000000000
C      -7.508780000000000    -12.711300000000000     -3.729180000000000
H      -8.651630000000001     -9.066590000000000     -4.746250000000000
H      -7.430750000000000    -10.011060000000001     -3.887070000000000
H      -9.176790000000000    -13.087490000000001     -5.005180000000000
H      -7.779780000000000    -12.479590000000000     -5.899920000000000
H      -8.114080000000000    -12.591150000000001     -2.806150000000000
H      -7.178720000000000    -13.768120000000000     -3.809760000000000
H      -6.600930000000000    -12.077970000000001     -3.667680000000000
H      -7.810900000000000     -9.803950000000000     -6.971700000000000
H      -6.579450000000000     -8.915170000000000     -5.995630000000000
H      -6.457140000000000    -10.694229999999999     -6.152250000000000
Na    -14.038810000000000     -9.073589999999999     -4.067690000000000
C     -13.832160000000000    -12.280270000000000     -4.926330000000000
C     -12.947070000000000    -11.878259999999999     -2.797020000000000
O     -13.196040000000000    -11.343920000000001     -4.081330000000000
C     -14.393380000000001    -11.543240000000001     -6.136010000000000
C     -11.711700000000000    -12.776360000000000     -2.781890000000000
H     -13.095440000000000    -13.027430000000001     -5.291500000000000
H     -14.685010000000000    -12.789220000000000     -4.423490000000000
H     -12.749750000000001    -11.020870000000000     -2.118350000000000
H     -13.834910000000001    -12.401940000000000     -2.378740000000000
H     -10.827059999999999    -12.214680000000000     -3.146320000000000
H     -11.515230000000001    -13.115360000000001     -1.743190000000000
H     -11.866040000000000    -13.671960000000000     -3.417520000000000
H     -13.579639999999999    -11.011350000000000     -6.674080000000000
H     -14.870760000000001    -12.265560000000001     -6.831070000000000
H     -15.154480000000000    -10.802370000000000     -5.813600000000000
C     -17.288550000000001     -9.398750000000000     -3.501640000000000
C     -16.956040000000002     -7.906350000000000     -5.240710000000000
O     -16.341629999999999     -8.823630000000000     -4.368860000000000
C     -16.557480000000002    -10.355689999999999     -2.569400000000000
C     -15.885910000000001     -7.345820000000000     -6.167970000000000
H     -17.782550000000001     -8.619960000000001     -2.877830000000000
H     -18.042430000000000     -9.983639999999999     -4.074810000000000
H     -17.725930000000002     -8.409730000000000     -5.867850000000000
H     -17.401160000000001     -7.058490000000000     -4.672860000000000
H     -15.421640000000000     -8.170430000000000     -6.750170000000000
H     -16.333980000000000     -6.615240000000000     -6.872950000000000
H     -15.095459999999999     -6.837220000000000     -5.574390000000000
H     -15.793210000000000     -9.805070000000001     -1.979390000000000
H     -17.274860000000000    -10.836589999999999     -1.872770000000000
H     -16.049830000000000    -11.144690000000001     -3.161970000000000
Mg     -6.412180000000000     -4.927810000000000      0.360030000000000
H      -3.806720000000000     -6.331020000000000     -0.504960000000000
C      -4.885240000000000     -6.261150000000000     -2.405720000000000
C      -4.833910000000000     -6.463370000000000     -0.902830000000000
C      -4.021680000000000     -7.314090000000000     -3.094100000000000
H      -5.939590000000000     -6.347440000000000     -2.748210000000000
H      -4.516480000000000     -5.239550000000000     -2.645020000000000
H      -2.974040000000000     -7.223970000000000     -2.732610000000000
H      -4.405050000000000     -8.326630000000000     -2.839830000000000
C      -4.041400000000000     -7.140740000000000     -4.605300000000000
H      -5.253200000000000     -7.448710000000000     -0.610030000000000
H      -5.078130000000000     -7.241090000000000     -4.988850000000000
H      -3.642480000000000     -6.141910000000000     -4.882290000000000
H      -3.406840000000000     -7.924090000000000     -5.069300000000000
C      -5.573210000000000     -4.414700000000000      3.372520000000000
C      -6.024610000000000     -3.504350000000000      4.315490000000000
C      -7.001780000000000     -2.739760000000000      3.696810000000000
C      -7.096160000000000     -3.202000000000000      2.404380000000000
N      -6.235140000000000     -4.219990000000000      2.225940000000000
C      -8.009610000000000     -2.706380000000000      1.300450000000000
N      -7.665060000000000     -3.364600000000000      0.022770000000000
C      -8.385940000000000     -3.047740000000000     -1.222300000000000
H      -5.685010000000000     -3.410760000000000      5.336800000000000
H      -4.811870000000000     -5.171510000000000      3.525390000000000
H      -7.573160000000000     -1.932210000000000      4.137100000000000
H      -7.872270000000000     -1.612440000000000      1.200920000000000
H      -9.054209999999999     -2.937610000000000      1.595080000000000
C      -8.130929999999999     -1.579030000000000     -1.610300000000000
C      -7.848630000000000     -3.949430000000000     -2.348440000000000
C      -9.894830000000001     -3.304050000000000     -1.060010000000000
H      -7.040720000000000     -1.401720000000000     -1.736250000000000
H      -8.640380000000000     -1.329020000000000     -2.565100000000000
H      -8.510920000000000     -0.884710000000000     -0.833990000000000
H      -8.021190000000001     -5.020940000000000     -2.110990000000000
H      -8.359760000000000     -3.721750000000000     -3.310500000000000
H      -6.758050000000000     -3.792000000000000     -2.492280000000000
H     -10.077650000000000     -4.363300000000000     -0.777770000000000
H     -10.329200000000000     -2.646660000000000     -0.279370000000000
H     -10.429670000000000     -3.094320000000000     -2.011310000000000

-C 0
6-31g(d,p)
****
-H 0
6-31g(d,p)
****
-Mg 0
6-31g(d,p)
****
-N 0
6-31+g(d,p)
****
-Na 0
6-31g(d,p)
****
-O 0
6-31+g(d,p)
****


