%chk=lowest10_c1_a2_speciation7_speciationDFT2_speciationDFT37b_rank07_E207.38.chk
%nprocshared=20
%mem=40GB
#p opt=loose PM7/gen scf=xqc 

lowest10_c1_a2_speciation7_speciationDFT2_speciationDFT37b_rank07_E207.38 DFT input

0 1
Mg     -0.356840000000000      0.156840000000000     -0.316960000000000
C       2.058810000000000      0.064850000000000     -2.410080000000000
C       0.184610000000000     -1.181530000000000     -3.197160000000000
O       1.004440000000000     -0.827260000000000     -2.103380000000000
C       1.599070000000000      1.408510000000000     -2.975210000000000
C       0.902760000000000     -2.105210000000000     -4.167860000000000
H       2.556700000000000      0.285140000000000     -1.448090000000000
H       2.839090000000000     -0.413600000000000     -3.034590000000000
H      -0.677190000000000     -1.742400000000000     -2.773920000000000
H      -0.262230000000000     -0.303440000000000     -3.706930000000000
H       1.341300000000000     -2.960010000000000     -3.611130000000000
H       0.178830000000000     -2.488370000000000     -4.916350000000000
H       1.703920000000000     -1.553070000000000     -4.698740000000000
H       0.765480000000000      1.818830000000000     -2.371610000000000
H       2.446440000000000      2.125220000000000     -2.949070000000000
H       1.273130000000000      1.297940000000000     -4.028150000000000
H      -1.899770000000000      2.159380000000000     -0.940270000000000
C      -3.193800000000000      0.407510000000000     -0.853020000000000
C      -1.922140000000000      1.106920000000000     -1.287260000000000
C      -3.275950000000000      0.340340000000000      0.676130000000000
H      -4.048380000000000      0.975210000000000     -1.271770000000000
H      -3.203050000000000     -0.629510000000000     -1.257260000000000
H      -2.471020000000000     -0.319180000000000      1.063350000000000
H      -3.139380000000000      1.350330000000000      1.116930000000000
C      -4.629590000000000     -0.198160000000000      1.121230000000000
H      -1.793130000000000      1.063990000000000     -2.387310000000000
H      -5.430410000000000      0.491080000000000      0.777630000000000
H      -4.809690000000000     -1.209390000000000      0.699250000000000
H      -4.664390000000000     -0.257060000000000      2.229300000000000
C      -1.151730000000000     -2.258990000000000      2.559130000000000
C      -0.958640000000000     -2.682090000000000      1.263540000000000
C       0.219190000000000     -2.111490000000000      0.816080000000000
C       0.715280000000000     -1.348450000000000      1.796720000000000
N      -0.094770000000000     -1.423080000000000      2.947970000000000
C       1.961580000000000     -0.504970000000000      1.731180000000000
N       1.781050000000000      0.659170000000000      0.845240000000000
C       1.512770000000000      1.976690000000000      1.473280000000000
H      -1.624220000000000     -3.326540000000000      0.703750000000000
H      -1.992110000000000     -2.514580000000000      3.187970000000000
H       0.644810000000000     -2.249760000000000     -0.165920000000000
H       2.795440000000000     -1.127540000000000      1.341720000000000
H       2.233810000000000     -0.198630000000000      2.753550000000000
C       2.705690000000000      2.421020000000000      2.342400000000000
C       1.342940000000000      3.008620000000000      0.340510000000000
C       0.214750000000000      1.965920000000000      2.308720000000000
H       3.643590000000000      2.384690000000000      1.748510000000000
H       2.555260000000000      3.461070000000000      2.703740000000000
H       2.827540000000000      1.788770000000000      3.242320000000000
H       0.464290000000000      2.759810000000000     -0.289020000000000
H       1.181830000000000      4.029990000000000      0.749540000000000
H       2.243120000000000      3.031090000000000     -0.310660000000000
H      -0.667380000000000      1.750080000000000      1.669200000000000
H       0.259670000000000      1.209570000000000      3.115360000000000
H       0.053690000000000      2.956510000000000      2.788110000000000
Na      0.898160000000000     10.211209999999999     -2.122050000000000
C       2.358610000000000     11.404360000000000     -4.701630000000000
C       1.858920000000000      9.178690000000000     -5.248850000000000
O       2.224730000000000     10.080489999999999     -4.221690000000000
C       1.029780000000000     12.148790000000000     -4.618280000000000
C       3.091510000000000      8.585089999999999     -5.926450000000000
H       3.092830000000000     11.928200000000000     -4.053650000000000
H       2.772630000000000     11.447900000000001     -5.734220000000000
H       1.282100000000000      8.351670000000000     -4.782510000000000
H       1.183950000000000      9.639279999999999     -6.004110000000000
H       3.722480000000000      8.050200000000000     -5.186750000000000
H       2.771150000000000      7.861160000000000     -6.704560000000000
H       3.695140000000000      9.381050000000000     -6.409080000000000
H       0.662820000000000     12.162240000000001     -3.570670000000000
H       1.168650000000000     13.194830000000000     -4.962150000000000
H       0.268750000000000     11.662140000000001     -5.261720000000000
C      -1.949100000000000      9.552600000000000     -3.801780000000000
C      -2.291790000000000      9.496980000000001     -1.443580000000000
O      -1.362760000000000      9.547700000000001     -2.512270000000000
C      -2.819040000000000     10.779220000000000     -4.079410000000000
C      -3.121570000000000      8.213260000000000     -1.415300000000000
H      -1.109760000000000      9.585310000000000     -4.527670000000000
H      -2.486800000000000      8.605880000000001     -4.013740000000000
H      -1.694250000000000      9.513439999999999     -0.506940000000000
H      -2.928450000000000     10.404920000000001     -1.403220000000000
H      -2.452540000000000      7.327270000000000     -1.433330000000000
H      -3.727620000000000      8.189270000000000     -0.485570000000000
H      -3.821230000000000      8.172280000000001     -2.274300000000000
H      -2.242680000000000     11.708570000000000     -3.887000000000000
H      -3.137660000000000     10.766260000000001     -5.142900000000000
H      -3.734810000000000     10.769450000000001     -3.454640000000000
Na      4.110340000000000      9.090130000000000     -3.119430000000000
C       3.006270000000000      9.668900000000001     -0.028610000000000
C       2.386790000000000      7.551610000000000     -0.811400000000000
O       2.694430000000000      8.885759999999999     -1.162270000000000
C       3.671440000000000     10.958580000000000     -0.493520000000000
C       0.958530000000000      7.415160000000000     -0.288180000000000
H       2.076820000000000      9.939930000000000      0.516460000000000
H       3.720660000000000      9.154970000000000      0.653100000000000
H       2.467310000000000      6.942360000000000     -1.737170000000000
H       3.123760000000000      7.121730000000000     -0.097390000000000
H       0.238640000000000      7.796850000000000     -1.041000000000000
H       0.736690000000000      6.345370000000000     -0.095130000000000
H       0.830150000000000      7.974640000000000      0.660700000000000
H       2.997640000000000     11.514220000000000     -1.180460000000000
H       3.901030000000000     11.601570000000001      0.381600000000000
H       4.618300000000000     10.730110000000000     -1.025820000000000
C       7.184420000000000      8.626580000000001     -1.966500000000000
C       7.161440000000000     10.476620000000000     -3.358130000000000
O       6.375790000000000      9.506980000000000     -2.708670000000000
C       6.281250000000000      7.587620000000000     -1.315390000000000
C       6.228660000000000     11.411250000000001     -4.116610000000000
H       7.903250000000000      8.092110000000000     -2.627860000000000
H       7.721060000000000      9.172510000000001     -1.158440000000000
H       7.732060000000000     11.084059999999999     -2.620000000000000
H       7.848380000000000     10.000870000000001     -4.093890000000000
H       5.528660000000000     11.902870000000000     -3.407510000000000
H       6.814830000000000     12.192299999999999     -4.643790000000000
H       5.638180000000000     10.837009999999999     -4.863180000000000
H       5.726610000000000      7.021450000000000     -2.094630000000000
H       6.884950000000000      6.877520000000000     -0.713280000000000
H       5.548670000000000      8.089290000000000     -0.649770000000000
Mg      0.802860000000000     17.648190000000000     -0.870250000000000
H      -0.408490000000000     18.773700000000002     -3.468030000000000
C       1.631420000000000     19.573139999999999     -3.590540000000000
C       0.352820000000000     19.259720000000002     -2.824750000000000
C       2.368670000000000     18.319800000000001     -4.090130000000000
H       1.382280000000000     20.237980000000000     -4.443740000000000
H       2.317870000000000     20.118990000000000     -2.907480000000000
H       3.278460000000000     18.657280000000000     -4.632900000000000
H       2.692370000000000     17.698110000000000     -3.228580000000000
C       1.535900000000000     17.455069999999999     -5.035520000000000
H      -0.076520000000000     20.179610000000000     -2.377920000000000
H       0.666290000000000     17.016529999999999     -4.503470000000000
H       1.180730000000000     18.055150000000001     -5.899210000000000
H       2.159410000000000     16.616990000000001     -5.412950000000000
C       3.828690000000000     16.719819999999999     -0.652300000000000
C       4.424330000000000     15.647399999999999     -0.004780000000000
C       3.402420000000000     14.931190000000001      0.598470000000000
C       2.231450000000000     15.577819999999999      0.280630000000000
N       2.507590000000000     16.666989999999998     -0.465380000000000
C       0.818600000000000     15.206189999999999      0.676010000000000
N      -0.148530000000000     16.029520000000002     -0.079650000000000
C      -1.600010000000000     15.864420000000001      0.108730000000000
H       5.478580000000000     15.417520000000000      0.028280000000000
H       4.342420000000000     17.489490000000000     -1.219550000000000
H       3.501340000000000     14.031140000000001      1.193950000000000
H       0.718040000000000     15.369440000000001      1.769830000000000
H       0.657600000000000     14.137720000000000      0.433110000000000
C      -1.994880000000000     16.073219999999999      1.582130000000000
C      -2.327580000000000     16.911010000000001     -0.754820000000000
C      -2.026050000000000     14.459960000000001     -0.362840000000000
H      -1.689350000000000     17.084790000000002      1.925290000000000
H      -3.095140000000000     15.974880000000001      1.706250000000000
H      -1.517070000000000     15.314740000000000      2.235450000000000
H      -2.059170000000000     16.793279999999999     -1.827000000000000
H      -3.430720000000000     16.799820000000000     -0.659080000000000
H      -2.054410000000000     17.940780000000000     -0.439050000000000
H      -1.744720000000000     14.312150000000001     -1.428850000000000
H      -1.538970000000000     13.666630000000000      0.239630000000000
H      -3.124800000000000     14.327780000000001     -0.267950000000000

-C 0
6-31g(d,p)
****
-H 0
6-31g(d,p)
****
-Mg 0
6-31g(d,p)
****
-N 0
6-31+g(d,p)
****
-Na 0
6-31g(d,p)
****
-O 0
6-31+g(d,p)
****


