%chk=lowest10_c1_a2_speciation0_speciationDFT37b_speciationDFT37b_rank04_E146.44.chk
%nprocshared=20
%mem=40GB
#p opt=loose PM7/gen scf=xqc 

lowest10_c1_a2_speciation0_speciationDFT37b_speciationDFT37b_rank04_E146.44 DFT input

0 1
Mg      0.347790000000000      0.239590000000000     -0.315150000000000
C      -0.935490000000000     -1.804080000000000     -2.406380000000000
C      -1.076570000000000      0.441760000000000     -3.195420000000000
O      -1.180370000000000     -0.444630000000000     -2.101400000000000
C       0.457130000000000     -2.078850000000000     -2.972970000000000
C      -2.235490000000000      0.280750000000000     -4.165720000000000
H      -0.992270000000000     -2.343290000000000     -1.443390000000000
H      -1.741280000000000     -2.241870000000000     -3.028240000000000
H      -1.131450000000000      1.468550000000000     -2.772120000000000
H      -0.092590000000000      0.389390000000000     -3.705070000000000
H      -3.194680000000000      0.323960000000000     -3.608030000000000
H      -2.208430000000000      1.101050000000000     -4.912330000000000
H      -2.154910000000000     -0.687970000000000     -4.698310000000000
H       1.230220000000000     -1.557910000000000     -2.374080000000000
H       0.655760000000000     -3.170590000000000     -2.941080000000000
H       0.520980000000000     -1.746760000000000     -4.027850000000000
H       2.849920000000000      0.571100000000000     -0.938040000000000
C       1.982660000000000      2.569460000000000     -0.851570000000000
C       1.951020000000000      1.118450000000000     -1.285440000000000
C       1.965960000000000      2.675530000000000      0.677600000000000
H       2.902220000000000      3.023800000000000     -1.270720000000000
H       1.089900000000000      3.097010000000000     -1.256090000000000
H       0.991440000000000      2.311410000000000      1.065160000000000
H       2.770310000000000      2.050230000000000      1.119160000000000
C       2.180820000000000      4.116920000000000      1.121390000000000
H       1.848460000000000      1.027350000000000     -2.385280000000000
H       3.179240000000000      4.462410000000000      0.777500000000000
H       1.397340000000000      4.780640000000000      0.698630000000000
H       2.147420000000000      4.177950000000000      2.229400000000000
C      -1.340740000000000      2.136840000000000      2.557220000000000
C      -1.803370000000000      2.180460000000000      1.263220000000000
C      -1.901490000000000      0.875990000000000      0.811870000000000
C      -1.487680000000000      0.065280000000000      1.796670000000000
N      -1.147220000000000      0.799400000000000      2.944410000000000
C      -1.380100000000000     -1.437670000000000      1.726720000000000
N      -0.279970000000000     -1.861100000000000      0.844760000000000
C       0.995250000000000     -2.287480000000000      1.473570000000000
H      -2.027100000000000      3.080800000000000      0.702600000000000
H      -1.139600000000000      2.989430000000000      3.186860000000000
H      -2.233650000000000      0.578770000000000     -0.168120000000000
H      -2.335000000000000     -1.848720000000000      1.335680000000000
H      -1.252690000000000     -1.826390000000000      2.750190000000000
C       0.782220000000000     -3.541570000000000      2.343730000000000
C       1.973090000000000     -2.656740000000000      0.340300000000000
C       1.634710000000000     -1.158130000000000      2.309210000000000
H       0.279000000000000     -4.334740000000000      1.750950000000000
H       1.757940000000000     -3.933000000000000      2.703920000000000
H       0.176040000000000     -3.328570000000000      3.244630000000000
H       2.196680000000000     -1.771160000000000     -0.289130000000000
H       2.939430000000000     -3.029720000000000      0.746240000000000
H       1.540100000000000     -3.445780000000000     -0.311580000000000
H       1.892590000000000     -0.287480000000000      1.669660000000000
H       0.956520000000000     -0.816940000000000      3.114520000000000
H       2.571430000000000     -1.515970000000000      2.789770000000000
Na     12.679760000000000     -1.969550000000000     11.359680000000001
C       9.537089999999999     -2.086610000000000     12.309590000000000
C       9.804330000000000     -0.566610000000000     10.600110000000001
O      10.293150000000001     -0.984000000000000     11.856270000000000
C      10.059120000000000     -2.520340000000000     13.672020000000000
C      10.628380000000000      0.614680000000000     10.109330000000000
H       8.464079999999999     -1.810900000000000     12.428450000000000
H       9.642450000000000     -2.950090000000000     11.613870000000000
H       9.896770000000000     -1.382670000000000      9.847260000000000
H       8.748889999999999     -0.226700000000000     10.684749999999999
H      11.694540000000000      0.321160000000000     10.005820000000000
H      10.250010000000000      0.950170000000000      9.120279999999999
H      10.551580000000000      1.458320000000000     10.827809999999999
H       9.962040000000000     -1.688100000000000     14.401320000000000
H       9.473929999999999     -3.389810000000000     14.039429999999999
H      11.128000000000000     -2.813150000000000     13.596220000000001
Na      9.574460000000000      0.975940000000000     13.472989999999999
Mg      4.789430000000000     -2.252320000000000      8.640290000000000
C       5.462460000000000     -5.373370000000000      9.077850000000000
C       6.287840000000000     -4.586790000000000      6.985700000000000
O       5.233950000000000     -4.579890000000000      7.927510000000000
C       6.681020000000000     -4.950780000000000      9.900399999999999
C       6.387910000000000     -5.913650000000000      6.246340000000000
H       4.578900000000000     -5.227940000000000      9.729360000000000
H       5.473750000000000     -6.455330000000000      8.838080000000000
H       6.047450000000000     -3.802820000000000      6.235170000000000
H       7.258860000000000     -4.277860000000000      7.422900000000000
H       5.401530000000000     -6.171180000000000      5.806340000000000
H       7.138170000000000     -5.825520000000000      5.433520000000000
H       6.711390000000000     -6.718960000000000      6.935760000000000
H       6.666670000000000     -3.858090000000000     10.080000000000000
H       6.662450000000000     -5.476550000000000     10.877850000000000
H       7.622160000000000     -5.225850000000000      9.385190000000000
H       6.775640000000000     -0.797270000000000      9.545360000000001
C       6.462560000000000     -0.153870000000000      7.491930000000000
C       6.614380000000000     -1.236540000000000      8.541449999999999
C       5.227750000000000      0.703840000000000      7.788030000000000
H       7.384600000000000      0.462840000000000      7.499330000000000
H       6.341590000000000     -0.625490000000000      6.491410000000000
H       4.311440000000000      0.082920000000000      7.689780000000000
H       5.272810000000000      1.099100000000000      8.825240000000001
C       5.142440000000000      1.882450000000000      6.827130000000000
H       7.445640000000000     -1.926250000000000      8.289479999999999
H       6.034350000000000      2.531900000000000      6.957810000000000
H       5.095880000000000      1.528990000000000      5.775410000000000
H       4.232950000000000      2.479520000000000      7.048220000000000
C       1.675060000000000     -0.678560000000000      6.906010000000000
C       2.463080000000000     -1.638170000000000      6.309120000000000
C       2.604330000000000     -2.672660000000000      7.216160000000000
C       1.943370000000000     -2.351410000000000      8.330539999999999
N       1.304360000000000     -1.098360000000000      8.189539999999999
C       1.849230000000000     -3.175420000000000      9.584930000000000
N       3.145210000000000     -3.243060000000000     10.287020000000000
C       3.327820000000000     -2.361080000000000     11.466740000000000
H       2.894480000000000     -1.574690000000000      5.320260000000000
H       1.385410000000000      0.264460000000000      6.462770000000000
H       3.165590000000000     -3.581260000000000      7.046690000000000
H       1.532270000000000     -4.204920000000000      9.312370000000000
H       1.059910000000000     -2.751010000000000     10.225370000000000
C       2.351080000000000     -2.747320000000000     12.597000000000000
C       4.761370000000000     -2.568620000000000     11.993960000000000
C       3.167990000000000     -0.870110000000000     11.100619999999999
H       2.456890000000000     -3.826180000000000     12.840030000000000
H       2.565000000000000     -2.156170000000000     13.513170000000001
H       1.295610000000000     -2.547420000000000     12.331600000000000
H       5.507460000000000     -2.263560000000000     11.232680000000000
H       4.945160000000000     -1.955910000000000     12.904370000000000
H       4.936120000000000     -3.635430000000000     12.251690000000000
H       3.917910000000000     -0.569250000000000     10.338450000000000
H       2.156480000000000     -0.654970000000000     10.705399999999999
H       3.319150000000000     -0.232040000000000     11.998609999999999

-C 0
6-31g(d,p)
****
-H 0
6-31g(d,p)
****
-Mg 0
6-31g(d,p)
****
-N 0
6-31+g(d,p)
****
-Na 0
6-31g(d,p)
****
-O 0
6-31+g(d,p)
****


