%chk=lowest10_c1_a2_speciation0_speciationDFT37b_speciationDFT38_rank07_E162.55.chk
%nprocshared=20
%mem=40GB
#p opt=loose PM7/gen scf=xqc 

lowest10_c1_a2_speciation0_speciationDFT37b_speciationDFT38_rank07_E162.55 DFT input

0 1
Mg      0.891590000000000     -0.419830000000000     -0.018660000000000
C      -1.568980000000000      0.718360000000000      1.858510000000000
C      -0.420950000000000      2.540140000000000      0.814220000000000
O      -0.418680000000000      1.173790000000000      1.167770000000000
C      -2.909210000000000      1.101770000000000      1.226630000000000
C      -0.327040000000000      3.453590000000000      2.026470000000000
H      -1.521160000000000     -0.387970000000000      1.829860000000000
H      -1.526470000000000      1.005530000000000      2.928620000000000
H       0.483910000000000      2.711280000000000      0.200170000000000
H      -1.265130000000000      2.801460000000000      0.146200000000000
H      -0.207580000000000      4.501570000000000      1.682120000000000
H       0.549810000000000      3.173030000000000      2.644560000000000
H      -1.248210000000000      3.377250000000000      2.636580000000000
H      -2.932260000000000      0.821210000000000      0.160450000000000
H      -3.097880000000000      2.189120000000000      1.330760000000000
H      -3.727110000000000      0.555430000000000      1.737410000000000
H       2.877210000000000     -0.051930000000000      1.726110000000000
C       3.801200000000000      0.478390000000000     -0.191130000000000
C       2.898910000000000     -0.413670000000000      0.678420000000000
C       3.340680000000000      1.942750000000000     -0.334080000000000
H       4.825570000000000      0.460460000000000      0.235440000000000
H       3.838160000000000      0.045560000000000     -1.213830000000000
H       4.074030000000000      2.477410000000000     -0.979270000000000
H       2.359880000000000      1.979120000000000     -0.849610000000000
C       3.252860000000000      2.693940000000000      0.994410000000000
H       3.263440000000000     -1.458690000000000      0.658680000000000
H       2.496990000000000      2.227990000000000      1.655290000000000
H       4.236710000000000      2.697130000000000      1.507430000000000
H       2.945800000000000      3.746760000000000      0.808760000000000
C      -0.994630000000000      1.906110000000000     -2.579190000000000
C       0.231620000000000      1.344470000000000     -2.845050000000000
C       0.172530000000000      0.013710000000000     -2.468080000000000
C      -1.046550000000000     -0.218210000000000     -1.963410000000000
N      -1.847660000000000      0.933870000000000     -2.031480000000000
C      -1.507580000000000     -1.518230000000000     -1.354360000000000
N      -0.648050000000000     -1.839910000000000     -0.209910000000000
C      -0.809630000000000     -3.151130000000000      0.465530000000000
H       1.087970000000000      1.866520000000000     -3.253270000000000
H      -1.270410000000000      2.936870000000000     -2.744200000000000
H       0.984990000000000     -0.697640000000000     -2.519970000000000
H      -1.468210000000000     -2.308060000000000     -2.127100000000000
H      -2.554550000000000     -1.386090000000000     -1.006870000000000
C      -0.392930000000000     -4.301530000000000     -0.471690000000000
C       0.089830000000000     -3.178510000000000      1.711950000000000
C      -2.275220000000000     -3.362420000000000      0.915980000000000
H       0.665670000000000     -4.184460000000000     -0.783850000000000
H      -0.506140000000000     -5.282150000000000      0.041090000000000
H      -1.029370000000000     -4.338450000000000     -1.378680000000000
H      -0.204770000000000     -2.384510000000000      2.430110000000000
H       0.010410000000000     -4.160110000000000      2.231650000000000
H       1.151260000000000     -3.020170000000000      1.428070000000000
H      -2.600800000000000     -2.546740000000000      1.596100000000000
H      -2.967240000000000     -3.393010000000000      0.048830000000000
H      -2.386540000000000     -4.326770000000000      1.459160000000000
Na     10.800720000000000      2.441360000000000     11.090570000000000
C       7.658180000000000      2.324250000000000     12.040459999999999
C       7.925420000000000      3.844250000000000     10.330970000000001
O       8.414239999999999      3.426870000000000     11.587140000000000
C       8.180210000000001      1.890510000000000     13.402889999999999
C       8.749459999999999      5.025540000000000      9.840180000000000
H       6.585170000000000      2.599960000000000     12.159319999999999
H       7.763550000000000      1.460770000000000     11.344740000000000
H       8.017870000000000      3.028180000000000      9.578130000000000
H       6.869970000000000      4.184140000000000     10.415590000000000
H       9.815619999999999      4.732040000000000      9.736670000000000
H       8.371090000000001      5.361020000000000      8.851129999999999
H       8.672650000000001      5.869190000000000     10.558650000000000
H       8.083119999999999      2.722740000000000     14.132210000000001
H       7.595020000000000      1.021040000000000     13.770300000000001
H       9.249090000000001      1.597700000000000     13.327109999999999
Na      7.695570000000000      5.386710000000000     13.203780000000000
Mg      2.910540000000000      2.158420000000000      8.371270000000001
C       3.583500000000000     -0.962430000000000      8.808330000000000
C       4.408690000000000     -0.175850000000000      6.715940000000000
O       3.354950000000000     -0.169000000000000      7.657930000000000
C       4.802010000000000     -0.539840000000000      9.630960000000000
C       4.508520000000000     -1.502580000000000      5.976300000000000
H       2.699950000000000     -0.816950000000000      9.459860000000001
H       3.594740000000000     -2.044400000000000      8.568650000000000
H       4.168290000000000      0.608230000000000      5.965500000000000
H       5.379790000000000      0.132890000000000      7.153170000000000
H       3.522100000000000     -1.760010000000000      5.536290000000000
H       5.258700000000000     -1.414370000000000      5.163410000000000
H       4.832060000000000     -2.307910000000000      6.665710000000000
H       4.787740000000000      0.552860000000000      9.810549999999999
H       4.783330000000000     -1.065520000000000     10.608480000000000
H       5.743170000000000     -0.815020000000000      9.115850000000000
H       4.896680000000000      3.613380000000000      9.276080000000000
C       4.583620000000000      4.256710000000000      7.222630000000000
C       4.735430000000000      3.174080000000000      8.272180000000001
C       3.348880000000000      5.114470000000000      7.518830000000000
H       5.505660000000000      4.873400000000000      7.230040000000000
H       4.462580000000000      3.785130000000000      6.222070000000000
H       2.432540000000000      4.493640000000000      7.420520000000000
H       3.393900000000000      5.509660000000000      8.556070000000000
C       3.263720000000000      6.293150000000000      6.558060000000000
H       5.566640000000000      2.484330000000000      8.020220000000000
H       4.155640000000000      6.942560000000000      6.688870000000000
H       3.217250000000000      5.939730000000000      5.506320000000000
H       2.354250000000000      6.890250000000000      6.779160000000000
C      -0.202530000000000      3.731960000000000      6.637530000000000
C       0.585520000000000      2.772210000000000      6.041120000000000
C       0.726080000000000      1.737390000000000      6.947650000000000
C       0.064630000000000      2.059040000000000      8.061820000000001
N      -0.573950000000000      3.311850000000000      7.920970000000000
C      -0.029510000000000      1.234890000000000      9.316090000000001
N       1.266360000000000      1.167550000000000     10.018100000000000
C       1.449000000000000      2.049720000000000     11.197710000000001
H       1.017960000000000      2.835290000000000      5.052800000000000
H      -0.491760000000000      4.675130000000000      6.194620000000000
H       1.287110000000000      0.828960000000000      6.778060000000000
H      -0.346450000000000      0.205460000000000      9.043440000000000
H      -0.818930000000000      1.659520000000000      9.956350000000000
C       0.472200000000000      1.663540000000000     12.327909999999999
C       2.882520000000000      1.842230000000000     11.724909999999999
C       1.289140000000000      3.540680000000000     10.831480000000001
H       0.577950000000000      0.584660000000000     12.570900000000000
H       0.686130000000000      2.254680000000000     13.244080000000000
H      -0.583240000000000      1.863500000000000     12.062460000000000
H       3.628620000000000      2.147300000000000     10.963630000000000
H       3.066300000000000      2.454950000000000     12.635310000000000
H       3.057300000000000      0.775420000000000     11.982620000000001
H       2.039140000000000      3.841590000000000     10.069410000000000
H       0.277670000000000      3.755810000000000     10.436170000000001
H       1.440190000000000      4.178780000000000     11.729480000000001

-C 0
6-31g(d,p)
****
-H 0
6-31g(d,p)
****
-Mg 0
6-31g(d,p)
****
-N 0
6-31+g(d,p)
****
-Na 0
6-31g(d,p)
****
-O 0
6-31+g(d,p)
****


