%chk=lowest10_c1_a2_speciation0_speciationDFT96_speciationDFT96_rank10_E190.96.chk
%nprocshared=20
%mem=40GB
#p opt=loose PM7/gen scf=xqc 

lowest10_c1_a2_speciation0_speciationDFT96_speciationDFT96_rank10_E190.96 DFT input

0 1
Mg     -0.000760000000000      0.315170000000000     -0.380160000000000
C      -1.664250000000000     -2.694950000000000     -1.011790000000000
C       0.685200000000000     -2.941140000000000     -0.671640000000000
O      -0.462000000000000     -2.125110000000000     -0.528330000000000
C      -2.118910000000000     -3.921390000000000     -0.227170000000000
C       1.052360000000000     -3.230800000000000     -2.124650000000000
H      -2.448330000000000     -1.916670000000000     -0.889570000000000
H      -1.621420000000000     -2.909000000000000     -2.096610000000000
H       1.532260000000000     -2.367430000000000     -0.245950000000000
H       0.620800000000000     -3.862050000000000     -0.057520000000000
H       1.109420000000000     -2.284510000000000     -2.701380000000000
H       2.043460000000000     -3.729460000000000     -2.156150000000000
H       0.311590000000000     -3.909860000000000     -2.590480000000000
H      -2.177930000000000     -3.692010000000000      0.855740000000000
H      -3.125840000000000     -4.223650000000000     -0.584120000000000
H      -1.425300000000000     -4.769220000000000     -0.391910000000000
H      -2.351960000000000      0.649530000000000     -2.152520000000000
C      -0.910850000000000     -0.082270000000000     -3.638800000000000
C      -1.285570000000000      0.759370000000000     -2.438550000000000
C      -1.700560000000000      0.385950000000000     -4.848620000000000
H       0.177030000000000      0.013810000000000     -3.834400000000000
H      -1.134890000000000     -1.145290000000000     -3.424610000000000
H      -2.787220000000000      0.287690000000000     -4.634690000000000
H      -1.463500000000000      1.454130000000000     -5.045900000000000
C      -1.351440000000000     -0.443180000000000     -6.073900000000000
H      -0.992970000000000      1.822340000000000     -2.564410000000000
H      -0.269120000000000     -0.346860000000000     -6.305500000000000
H      -1.594620000000000     -1.512330000000000     -5.894340000000000
H      -1.941670000000000     -0.076640000000000     -6.937830000000000
C       0.266180000000000      2.145900000000000      4.113710000000000
C       1.246550000000000      3.013220000000000      3.684170000000000
C       2.020180000000000      2.321470000000000      2.765280000000000
C       1.484240000000000      1.109010000000000      2.653320000000000
N       0.387690000000000      1.014750000000000      3.525150000000000
C       1.951950000000000     -0.064770000000000      1.814720000000000
N       1.850830000000000      0.088520000000000      0.351180000000000
C       2.808920000000000      0.825890000000000     -0.484820000000000
H       1.386740000000000      4.032260000000000      4.021430000000000
H      -0.507210000000000      2.353390000000000      4.839310000000000
H       2.890430000000000      2.708460000000000      2.265560000000000
H       1.280270000000000     -0.912550000000000      2.070860000000000
H       2.967200000000000     -0.377920000000000      2.114210000000000
C       4.212490000000000      0.797960000000000      0.125140000000000
C       2.857270000000000      0.120780000000000     -1.855180000000000
C       2.315080000000000      2.267200000000000     -0.727850000000000
H       4.526140000000000     -0.258310000000000      0.275410000000000
H       4.938520000000000      1.297090000000000     -0.546930000000000
H       4.227100000000000      1.315320000000000      1.101700000000000
H       1.851120000000000      0.107190000000000     -2.320430000000000
H       3.547400000000000      0.643450000000000     -2.552220000000000
H       3.191650000000000     -0.933060000000000     -1.749420000000000
H       1.341100000000000      2.270010000000000     -1.266250000000000
H       2.165760000000000      2.824810000000000      0.206760000000000
H       3.046760000000000      2.826650000000000     -1.348940000000000
C      -2.205550000000000      1.439680000000000      1.581360000000000
C      -1.845850000000000     -0.830280000000000      2.113800000000000
O      -1.792270000000000      0.169840000000000      1.116360000000000
C      -1.359690000000000      2.535450000000000      0.928850000000000
C      -3.269030000000000     -1.298040000000000      2.342030000000000
H      -3.263540000000000      1.592630000000000      1.288380000000000
H      -2.114690000000000      1.556040000000000      2.682760000000000
H      -1.237580000000000     -1.690350000000000      1.770070000000000
H      -1.383230000000000     -0.522820000000000      3.067490000000000
H      -3.707820000000000     -1.647180000000000      1.384770000000000
H      -3.264770000000000     -2.130900000000000      3.074870000000000
H      -3.872470000000000     -0.460380000000000      2.746140000000000
H      -0.292780000000000      2.430860000000000      1.196210000000000
H      -1.436970000000000      2.494750000000000     -0.176030000000000
H      -1.704990000000000      3.532080000000000      1.272470000000000
Na     12.202560000000000      4.853300000000000     -1.930490000000000
C      14.397990000000000      5.516890000000000      0.418510000000000
C      12.399800000000001      6.572220000000000      0.860030000000000
O      13.392980000000000      6.350600000000000     -0.117600000000000
C      15.466930000000000      5.282020000000000     -0.638980000000000
C      11.310449999999999      7.459110000000000      0.274670000000000
H      14.886960000000000      6.000530000000000      1.294730000000000
H      13.978930000000000      4.524970000000000      0.704060000000000
H      11.926850000000000      5.611760000000000      1.163250000000000
H      12.826499999999999      7.096490000000000      1.745510000000000
H      10.847149999999999      6.964480000000000     -0.605300000000000
H      10.524680000000000      7.642350000000000      1.037860000000000
H      11.739360000000000      8.434080000000000     -0.040150000000000
H      15.918990000000001      6.248890000000000     -0.946450000000000
H      16.264360000000000      4.627420000000000     -0.227690000000000
H      15.021820000000000      4.789440000000000     -1.529520000000000
Na     14.572310000000000      8.692600000000001     -0.363660000000000
Mg      8.968090000000000      3.429220000000000      7.130670000000000
C       7.697680000000000      0.100970000000000      6.733730000000000
C       8.605910000000000      1.015510000000000      4.731310000000000
O       8.498900000000001      1.107790000000000      6.140560000000000
C       8.281190000000000     -1.304890000000000      6.604690000000000
C       7.282070000000000      1.240870000000000      4.002030000000000
H       7.648320000000000      0.337320000000000      7.818330000000000
H       6.650770000000000      0.133280000000000      6.374950000000000
H       9.285550000000001      1.831250000000000      4.412040000000000
H       9.107630000000000      0.080020000000000      4.411340000000000
H       6.817130000000000      2.190520000000000      4.338440000000000
H       7.472680000000000      1.300670000000000      2.910200000000000
H       6.582270000000000      0.400020000000000      4.177280000000000
H       9.318650000000000     -1.333520000000000      6.994540000000000
H       7.657840000000000     -2.009620000000000      7.193790000000000
H       8.270709999999999     -1.643970000000000      5.550000000000000
H       6.562370000000000      2.813530000000000      8.919639999999999
C       5.486070000000000      3.199220000000000      7.055590000000000
C       6.594340000000000      3.497020000000000      8.045820000000001
C       4.129740000000000      3.411610000000000      7.716090000000000
H       5.590250000000000      3.869690000000000      6.176780000000000
H       5.580210000000000      2.150270000000000      6.710610000000000
H       4.038970000000000      2.739830000000000      8.597329999999999
H       4.048010000000000      4.467240000000000      8.055899999999999
C       3.002180000000000      3.111780000000000      6.740740000000000
H       6.576350000000000      4.559210000000000      8.367690000000000
H       3.074890000000000      3.785850000000000      5.861740000000000
H       3.058660000000000      2.055690000000000      6.400050000000000
H       2.028020000000000      3.277210000000000      7.244730000000000
C      13.436980000000000      4.257320000000000      8.680840000000000
C      13.318899999999999      5.561570000000000      8.249840000000001
C      12.600090000000000      5.528360000000000      7.067250000000000
C      12.295510000000000      4.255460000000000      6.841620000000000
N      12.845459999999999      3.463630000000000      7.864490000000000
C      11.550369999999999      3.668400000000000      5.660290000000000
N      10.117080000000000      4.009880000000000      5.565560000000000
C       9.593230000000000      5.273370000000000      5.017900000000000
H      13.726310000000000      6.437910000000000      8.738230000000000
H      13.948850000000000      3.920030000000000      9.571030000000000
H      12.361670000000000      6.378550000000000      6.454370000000000
H      11.589670000000000      2.564470000000000      5.785610000000000
H      12.082720000000000      3.888530000000000      4.716570000000000
C      10.526180000000000      5.868840000000000      3.954490000000000
C       8.243390000000000      4.947930000000000      4.349820000000000
C       9.309400000000000      6.276300000000000      6.155750000000000
H      10.686439999999999      5.123940000000000      3.146420000000000
H      10.079240000000000      6.782960000000000      3.511800000000000
H      11.507050000000000      6.142170000000000      4.384810000000000
H       7.540790000000000      4.510640000000000      5.089210000000000
H       7.772340000000000      5.862190000000000      3.928070000000000
H       8.375270000000000      4.208680000000000      3.531170000000000
H       8.564710000000000      5.861720000000000      6.870320000000000
H      10.207400000000000      6.526870000000000      6.737050000000000
H       8.892760000000001      7.221340000000000      5.746330000000000
C      10.323250000000000      2.836960000000000      9.935290000000000
C      10.794879999999999      1.002550000000000      8.534820000000000
O       9.898860000000001      2.053400000000000      8.836539999999999
C       9.955900000000000      4.300660000000000      9.693659999999999
C      10.602250000000000     -0.167480000000000      9.482490000000000
H       9.796239999999999      2.485830000000000     10.845700000000001
H      11.420000000000000      2.793670000000000     10.113810000000001
H      10.583530000000000      0.662340000000000      7.500800000000000
H      11.854509999999999      1.321980000000000      8.520149999999999
H       9.545480000000000     -0.505240000000000      9.455060000000000
H      11.263870000000001     -1.002510000000000      9.171989999999999
H      10.866860000000001      0.140610000000000     10.514430000000001
H      10.465740000000000      4.692810000000000      8.792890000000000
H       8.862360000000001      4.411570000000000      9.547260000000000
H      10.262810000000000      4.917290000000000     10.563160000000000

-C 0
6-31g(d,p)
****
-H 0
6-31g(d,p)
****
-Mg 0
6-31g(d,p)
****
-N 0
6-31+g(d,p)
****
-Na 0
6-31g(d,p)
****
-O 0
6-31+g(d,p)
****


