%chk=lowest10_c1_a2_speciation0_speciationDFT37b_speciationDFT96_rank10_E169.19.chk
%nprocshared=20
%mem=40GB
#p opt=loose PM7/gen scf=xqc 

lowest10_c1_a2_speciation0_speciationDFT37b_speciationDFT96_rank10_E169.19 DFT input

0 1
Mg      0.187570000000000      0.452190000000000     -0.179760000000000
C       0.214240000000000     -1.882360000000000     -2.776150000000000
C       1.731870000000000     -2.387450000000000     -1.004320000000000
O       0.604150000000000     -1.649480000000000     -1.435520000000000
C      -0.291620000000000     -3.298850000000000     -3.028710000000000
C       3.014200000000000     -2.040610000000000     -1.756050000000000
H      -0.631220000000000     -1.189730000000000     -2.978590000000000
H       1.006300000000000     -1.607140000000000     -3.498160000000000
H       1.905590000000000     -2.103640000000000      0.052610000000000
H       1.532790000000000     -3.477970000000000     -0.982980000000000
H       3.176870000000000     -0.942960000000000     -1.750380000000000
H       3.873410000000000     -2.532230000000000     -1.254020000000000
H       2.970410000000000     -2.407980000000000     -2.800050000000000
H      -1.097710000000000     -3.558650000000000     -2.313500000000000
H      -0.696660000000000     -3.357350000000000     -4.060800000000000
H       0.535880000000000     -4.029890000000000     -2.940200000000000
H      -0.426490000000000      1.657080000000000     -2.811220000000000
C       1.760680000000000      1.559580000000000     -2.986320000000000
C       0.489980000000000      1.818620000000000     -2.207040000000000
C       1.858610000000000      2.550660000000000     -4.132640000000000
H       2.636910000000000      1.667530000000000     -2.314430000000000
H       1.745710000000000      0.523720000000000     -3.377170000000000
H       0.971820000000000      2.432500000000000     -4.792850000000000
H       1.870330000000000      3.582940000000000     -3.719920000000000
C       3.124000000000000      2.315780000000000     -4.941520000000000
H       0.496510000000000      2.811320000000000     -1.711240000000000
H       4.019590000000000      2.439990000000000     -4.295900000000000
H       3.119660000000000      1.290550000000000     -5.369720000000000
H       3.166560000000000      3.054090000000000     -5.767440000000000
C      -3.031050000000000      0.140890000000000      3.453560000000000
C      -2.285000000000000      1.046390000000000      4.175690000000000
C      -0.952460000000000      0.780060000000000      3.900100000000000
C      -0.938510000000000     -0.229020000000000      3.032510000000000
N      -2.259730000000000     -0.626810000000000      2.776130000000000
C       0.251760000000000     -0.949060000000000      2.427440000000000
N       1.089790000000000     -0.172200000000000      1.495220000000000
C       2.118440000000000      0.797160000000000      1.898010000000000
H      -2.676060000000000      1.805040000000000      4.842170000000000
H      -4.108010000000000      0.057450000000000      3.436060000000000
H      -0.111850000000000      1.293510000000000      4.331900000000000
H      -0.167770000000000     -1.782760000000000      1.823730000000000
H       0.863520000000000     -1.420940000000000      3.215750000000000
C       2.727450000000000      0.425880000000000      3.250970000000000
C       3.231380000000000      0.753380000000000      0.832320000000000
C       1.540050000000000      2.227260000000000      1.900990000000000
H       3.133750000000000     -0.608070000000000      3.200650000000000
H       3.547130000000000      1.123130000000000      3.515030000000000
H       1.960940000000000      0.469080000000000      4.044400000000000
H       2.821210000000000      1.000790000000000     -0.167270000000000
H       4.035720000000000      1.485400000000000      1.061180000000000
H       3.681840000000000     -0.259840000000000      0.768290000000000
H       1.196300000000000      2.521000000000000      0.884150000000000
H       0.677410000000000      2.330980000000000      2.573410000000000
H       2.314920000000000      2.956240000000000      2.220730000000000
C      -2.955920000000000      0.744520000000000     -0.103770000000000
C      -2.439890000000000     -1.548820000000000     -0.304580000000000
O      -2.020760000000000     -0.220330000000000     -0.544170000000000
C      -2.222730000000000      1.963810000000000      0.460180000000000
C      -3.477480000000000     -1.985300000000000     -1.319000000000000
H      -3.559140000000000      1.070320000000000     -0.974690000000000
H      -3.638050000000000      0.366760000000000      0.687920000000000
H      -1.554320000000000     -2.209040000000000     -0.392130000000000
H      -2.810950000000000     -1.712520000000000      0.721780000000000
H      -3.075740000000000     -1.859060000000000     -2.345360000000000
H      -3.728420000000000     -3.052030000000000     -1.146300000000000
H      -4.392780000000000     -1.371560000000000     -1.197930000000000
H      -1.609770000000000      1.692480000000000      1.338370000000000
H      -1.548440000000000      2.410490000000000     -0.297550000000000
H      -2.958210000000000      2.731290000000000      0.777420000000000
Na      8.758170000000000      2.576710000000000     15.614340000000000
C       7.534880000000000      1.590180000000000     12.734959999999999
C       6.090440000000000      1.058570000000000     14.448460000000001
O       7.428460000000000      0.985140000000000     14.006050000000000
C       8.976940000000001      1.492990000000000     12.257140000000000
C       5.981120000000000      0.415620000000000     15.823399999999999
H       6.893690000000000      1.065320000000000     11.990080000000001
H       7.265940000000000      2.669790000000000     12.788110000000000
H       5.760860000000000      2.118770000000000     14.541150000000000
H       5.420180000000000      0.496720000000000     13.761550000000000
H       6.633340000000000      0.947670000000000     16.548060000000000
H       4.930180000000000      0.468790000000000     16.179290000000002
H       6.288800000000000     -0.650460000000000     15.772000000000000
H       9.283329999999999      0.428080000000000     12.179600000000001
H       9.074750000000000      1.968190000000000     11.258100000000001
H       9.651790000000000      2.013430000000000     12.969670000000001
Na      7.766600000000000     -1.580320000000000     13.508120000000000
Mg      1.849260000000000      2.295040000000000     10.933650000000000
C       3.273180000000000      4.979060000000000      9.870670000000000
C       2.052010000000000      5.377000000000000     11.878030000000001
O       2.097250000000000      4.734440000000000     10.620150000000001
C       4.561020000000000      4.519340000000000     10.555840000000000
C       1.847710000000000      6.879540000000000     11.747080000000000
H       3.176990000000000      4.375550000000000      8.947279999999999
H       3.333190000000000      6.031060000000000      9.527210000000000
H       1.168860000000000      4.964540000000000     12.412550000000000
H       2.920010000000000      5.127560000000000     12.521380000000001
H       0.958870000000000      7.081420000000000     11.112950000000000
H       1.684800000000000      7.317210000000000     12.753670000000000
H       2.742840000000000      7.354820000000000     11.298439999999999
H       4.449820000000000      3.484450000000000     10.934279999999999
H       5.394690000000000      4.547150000000000      9.823470000000000
H       4.824070000000000      5.191480000000000     11.396030000000000
H       3.454300000000000      1.064630000000000     12.598570000000000
C       1.579400000000000      1.322350000000000     13.670170000000001
C       2.695260000000000      1.848140000000000     12.789999999999999
C       0.843330000000000      0.176090000000000     12.968360000000001
H       2.029040000000000      0.979460000000000     14.624380000000000
H       0.855350000000000      2.141820000000000     13.876120000000000
H       0.327900000000000      0.563880000000000     12.063630000000000
H       1.563470000000000     -0.607970000000000     12.651249999999999
C      -0.181680000000000     -0.460020000000000     13.898050000000000
H       3.174390000000000      2.741760000000000     13.239290000000000
H       0.337190000000000     -0.892210000000000     14.780279999999999
H      -0.922590000000000      0.293220000000000     14.239900000000000
H      -0.714600000000000     -1.275130000000000     13.365019999999999
C      -1.691800000000000      0.994880000000000     10.108750000000001
C      -1.473200000000000      2.264290000000000     10.615420000000000
C      -0.485150000000000      2.831670000000000      9.834330000000000
C      -0.141590000000000      1.917750000000000      8.933059999999999
N      -0.928550000000000      0.764810000000000      9.109140000000000
C       0.914720000000000      2.051900000000000      7.868180000000000
N       2.268310000000000      2.091170000000000      8.452190000000000
C       3.079090000000000      0.849650000000000      8.382260000000000
H      -1.967650000000000      2.716420000000000     11.465690000000000
H      -2.400180000000000      0.274310000000000     10.491820000000001
H      -0.071590000000000      3.822070000000000      9.944839999999999
H       0.735610000000000      2.995320000000000      7.309900000000000
H       0.800620000000000      1.222410000000000      7.150860000000000
C       3.397780000000000      0.487770000000000      6.917720000000000
C       4.416030000000000      1.115060000000000      9.102340000000000
C       2.383380000000000     -0.331720000000000      9.091500000000000
H       3.874810000000000      1.350720000000000      6.405570000000000
H       4.093270000000000     -0.377610000000000      6.873170000000000
H       2.493060000000000      0.195740000000000      6.354010000000000
H       4.246940000000000      1.338370000000000     10.175160000000000
H       5.082410000000000      0.225500000000000      9.049170000000000
H       4.948140000000000      1.975680000000000      8.642760000000001
H       2.221020000000000     -0.104850000000000     10.166570000000000
H       1.404880000000000     -0.564690000000000      8.628539999999999
H       3.011740000000000     -1.246910000000000      9.026800000000000

-C 0
6-31g(d,p)
****
-H 0
6-31g(d,p)
****
-Mg 0
6-31g(d,p)
****
-N 0
6-31+g(d,p)
****
-Na 0
6-31g(d,p)
****
-O 0
6-31+g(d,p)
****


