%chk=lowest10_c1_a2_speciation7_speciationDFT2_speciationDFT37b_rank04_E207.34.chk
%nprocshared=20
%mem=40GB
#p opt=loose PM7/gen scf=xqc 

lowest10_c1_a2_speciation7_speciationDFT2_speciationDFT37b_rank04_E207.34 DFT input

0 1
Mg     -0.356910000000000      0.156870000000000     -0.316980000000000
C       2.058770000000000      0.064760000000000     -2.410050000000000
C       0.184570000000000     -1.181580000000000     -3.197160000000000
O       1.004390000000000     -0.827340000000000     -2.103360000000000
C       1.599030000000000      1.408400000000000     -2.975210000000000
C       0.902730000000000     -2.105230000000000     -4.167870000000000
H       2.556650000000000      0.285070000000000     -1.448060000000000
H       2.839060000000000     -0.413680000000000     -3.034550000000000
H      -0.677230000000000     -1.742450000000000     -2.773930000000000
H      -0.262270000000000     -0.303470000000000     -3.706910000000000
H       1.341280000000000     -2.960030000000000     -3.611150000000000
H       0.178810000000000     -2.488380000000000     -4.916360000000000
H       1.703890000000000     -1.553080000000000     -4.698740000000000
H       0.765430000000000      1.818720000000000     -2.371610000000000
H       2.446400000000000      2.125100000000000     -2.949050000000000
H       1.273100000000000      1.297830000000000     -4.028150000000000
H      -1.899870000000000      2.159440000000000     -0.940310000000000
C      -3.193910000000000      0.407620000000000     -0.853060000000000
C      -1.922240000000000      1.106980000000000     -1.287290000000000
C      -3.276030000000000      0.340440000000000      0.676090000000000
H      -4.048490000000000      0.975360000000000     -1.271800000000000
H      -3.203170000000000     -0.629400000000000     -1.257290000000000
H      -2.471100000000000     -0.319090000000000      1.063300000000000
H      -3.139440000000000      1.350430000000000      1.116900000000000
C      -4.629650000000000     -0.198060000000000      1.121200000000000
H      -1.793220000000000      1.064040000000000     -2.387350000000000
H      -5.430470000000000      0.491190000000000      0.777610000000000
H      -4.809750000000000     -1.209300000000000      0.699220000000000
H      -4.664430000000000     -0.256980000000000      2.229270000000000
C      -1.151750000000000     -2.258980000000000      2.559130000000000
C      -0.958660000000000     -2.682070000000000      1.263540000000000
C       0.219180000000000     -2.111480000000000      0.816100000000000
C       0.715280000000000     -1.348460000000000      1.796750000000000
N      -0.094790000000000     -1.423090000000000      2.947990000000000
C       1.961590000000000     -0.505010000000000      1.731240000000000
N       1.781080000000000      0.659130000000000      0.845330000000000
C       1.512720000000000      1.976590000000000      1.473430000000000
H      -1.624230000000000     -3.326520000000000      0.703750000000000
H      -1.992130000000000     -2.514570000000000      3.187970000000000
H       0.644810000000000     -2.249750000000000     -0.165900000000000
H       2.795440000000000     -1.127580000000000      1.341770000000000
H       2.233830000000000     -0.198660000000000      2.753610000000000
C       2.705630000000000      2.421070000000000      2.342480000000000
C       1.342720000000000      3.008450000000000      0.340740000000000
C       0.214700000000000      1.965810000000000      2.308860000000000
H       3.643520000000000      2.384760000000000      1.748560000000000
H       2.555180000000000      3.461160000000000      2.703740000000000
H       2.827550000000000      1.788850000000000      3.242400000000000
H       0.464270000000000      2.759400000000000     -0.288940000000000
H       1.180920000000000      4.029500000000000      0.750140000000000
H       2.243020000000000      3.031400000000000     -0.310280000000000
H      -0.667430000000000      1.749980000000000      1.669320000000000
H       0.259640000000000      1.209480000000000      3.115500000000000
H       0.053650000000000      2.956430000000000      2.788210000000000
Na     -0.660870000000000     12.870870000000000     -0.190420000000000
C      -1.201000000000000     10.061780000000001      1.233710000000000
C       0.037450000000000     11.312419999999999      2.784450000000000
O      -0.187830000000000     11.031929999999999      1.415990000000000
C      -2.571760000000000     10.722350000000000      1.126140000000000
C       1.106280000000000     10.391340000000000      3.367540000000000
H      -0.994710000000000      9.529790000000000      0.280930000000000
H      -1.198450000000000      9.282360000000001      2.028720000000000
H       0.398160000000000     12.360469999999999      2.859410000000000
H      -0.893380000000000     11.261350000000000      3.391990000000000
H       2.061960000000000     10.505870000000000      2.815300000000000
H       1.280550000000000     10.656670000000000      4.431220000000000
H       0.782110000000000      9.331640000000000      3.314480000000000
H      -2.584370000000000     11.444490000000000      0.283120000000000
H      -3.343980000000000      9.946320000000000      0.944010000000000
H      -2.821700000000000     11.257849999999999      2.064640000000000
C      -2.309790000000000     14.608269999999999      2.180830000000000
C      -1.971840000000000     15.914199999999999      0.215630000000000
O      -1.660520000000000     14.729340000000001      0.927650000000000
C      -3.833560000000000     14.527220000000000      2.081010000000000
C      -1.521700000000000     17.190660000000001      0.926410000000000
H      -1.966870000000000     13.648099999999999      2.620100000000000
H      -1.981670000000000     15.393140000000001      2.892640000000000
H      -1.407860000000000     15.863429999999999     -0.740400000000000
H      -3.041960000000000     15.955120000000001     -0.075030000000000
H      -0.442990000000000     17.124079999999999      1.181020000000000
H      -1.681160000000000     18.059790000000000      0.254490000000000
H      -2.114230000000000     17.363930000000000      1.847270000000000
H      -4.128690000000000     13.713600000000000      1.385440000000000
H      -4.253200000000000     14.312170000000000      3.086170000000000
H      -4.263300000000000     15.489480000000000      1.736840000000000
Na      1.972190000000000     10.590130000000000      0.471890000000000
C       1.516360000000000     12.467040000000001     -2.244260000000000
C       2.547690000000000     13.650650000000001     -0.508300000000000
O       1.662540000000000     12.601789999999999     -0.845660000000000
C       0.864560000000000     11.121950000000000     -2.539890000000000
C       1.872260000000000     15.017550000000000     -0.598000000000000
H       0.850400000000000     13.264640000000000     -2.637630000000000
H       2.496120000000000     12.483390000000000     -2.772570000000000
H       2.854350000000000     13.493690000000001      0.548100000000000
H       3.485220000000000     13.621079999999999     -1.106520000000000
H       0.973430000000000     15.041930000000001      0.051920000000000
H       2.580100000000000     15.801880000000001     -0.257070000000000
H       1.576950000000000     15.244640000000000     -1.642590000000000
H      -0.122040000000000     11.052030000000000     -2.033590000000000
H       0.715530000000000     11.007180000000000     -3.633760000000000
H       1.512620000000000     10.295769999999999     -2.179950000000000
C       4.490640000000000      9.014820000000000     -1.001300000000000
C       2.787090000000000      7.504290000000000     -0.579750000000000
O       3.164570000000000      8.859460000000000     -0.557310000000000
C       4.846110000000000     10.493770000000000     -0.925800000000000
C       1.338660000000000      7.409600000000000     -0.119770000000000
H       5.197860000000000      8.456740000000000     -0.347030000000000
H       4.591190000000000      8.689420000000000     -2.061000000000000
H       2.848020000000000      7.092560000000000     -1.612310000000000
H       3.413150000000000      6.907440000000000      0.121300000000000
H       0.687130000000000      7.997560000000000     -0.801020000000000
H       1.002950000000000      6.352650000000000     -0.126400000000000
H       1.238740000000000      7.814610000000000      0.910650000000000
H       4.755480000000000     10.855580000000000      0.121230000000000
H       5.886290000000000     10.657019999999999     -1.276010000000000
H       4.155980000000000     11.080570000000000     -1.566770000000000
Mg     -6.026630000000000      9.765910000000000     -4.485500000000000
H      -8.190210000000000      8.986739999999999     -2.437520000000000
C      -7.541360000000000      7.003990000000000     -3.118140000000000
C      -7.939610000000000      8.451260000000000     -3.375660000000000
C      -6.248720000000000      6.861300000000000     -2.297910000000000
H      -8.380440000000000      6.489010000000000     -2.605550000000000
H      -7.373850000000000      6.512030000000000     -4.100820000000000
H      -6.050710000000000      5.775180000000000     -2.166090000000000
H      -5.393600000000000      7.302440000000000     -2.852650000000000
C      -6.325320000000000      7.508900000000000     -0.915960000000000
H      -8.801110000000000      8.506850000000000     -4.072010000000000
H      -6.424740000000000      8.610760000000001     -1.003370000000000
H      -7.184370000000000      7.101280000000000     -0.343190000000000
H      -5.388780000000000      7.296870000000000     -0.357810000000000
C      -3.392010000000000      8.055030000000000     -4.929230000000000
C      -2.075230000000000      8.424890000000000     -5.160410000000000
C      -2.046170000000000      9.810650000000001     -5.156930000000000
C      -3.331810000000000     10.227950000000000     -4.905320000000000
N      -4.137620000000000      9.153219999999999     -4.783930000000000
C      -3.850530000000000     11.644629999999999     -4.784500000000000
N      -5.236100000000000     11.631150000000000     -4.270440000000000
C      -5.978660000000000     12.883889999999999     -4.049530000000000
H      -1.236750000000000      7.763460000000000     -5.318040000000000
H      -3.770980000000000      7.039270000000000     -4.877370000000000
H      -1.180400000000000     10.444350000000000     -5.309690000000000
H      -3.798990000000000     12.112069999999999     -5.790520000000000
H      -3.202410000000000     12.194470000000001     -4.074460000000000
C      -6.063060000000000     13.713660000000001     -5.343670000000000
C      -7.405300000000000     12.532360000000001     -3.589580000000000
C      -5.293700000000000     13.701460000000001     -2.936510000000000
H      -6.556480000000000     13.127330000000001     -6.148110000000000
H      -6.650090000000000     14.641760000000000     -5.171470000000000
H      -5.054110000000000     14.017429999999999     -5.690340000000000
H      -7.381390000000000     11.925660000000001     -2.658550000000000
H      -7.990630000000000     13.456770000000001     -3.386370000000000
H      -7.938540000000000     11.949339999999999     -4.370930000000000
H      -5.237800000000000     13.102779999999999     -2.000650000000000
H      -4.263830000000000     13.993700000000000     -3.225610000000000
H      -5.860730000000000     14.632709999999999     -2.724420000000000

-C 0
6-31g(d,p)
****
-H 0
6-31g(d,p)
****
-Mg 0
6-31g(d,p)
****
-N 0
6-31+g(d,p)
****
-Na 0
6-31g(d,p)
****
-O 0
6-31+g(d,p)
****


