%chk=lowest10_c1_a2_speciation0_speciationDFT0_speciationDFT37b_rank08_E164.63.chk
%nprocshared=20
%mem=40GB
#p opt=loose PM7/gen scf=xqc 

lowest10_c1_a2_speciation0_speciationDFT0_speciationDFT37b_rank08_E164.63 DFT input

0 1
Mg     -0.352350000000000      0.149630000000000     -0.313300000000000
C       2.055100000000000      0.064000000000000     -2.402620000000000
C       0.180480000000000     -1.179880000000000     -3.193540000000000
O       0.999770000000000     -0.827520000000000     -2.099340000000000
C       1.598190000000000      1.407340000000000     -2.970540000000000
C       0.900140000000000     -2.102540000000000     -4.163370000000000
H       2.547990000000000      0.284390000000000     -1.438700000000000
H       2.838920000000000     -0.415460000000000     -3.021730000000000
H      -0.681280000000000     -1.740780000000000     -2.770040000000000
H      -0.265940000000000     -0.301310000000000     -3.703120000000000
H       1.346280000000000     -2.952070000000000     -3.604620000000000
H       0.176240000000000     -2.493180000000000     -4.907920000000000
H       1.696060000000000     -1.546310000000000     -4.697870000000000
H       0.756140000000000      1.814990000000000     -2.376740000000000
H       2.442990000000000      2.126570000000000     -2.932450000000000
H       1.285560000000000      1.296480000000000     -4.027470000000000
H      -1.884800000000000      2.150250000000000     -0.935750000000000
C      -3.185220000000000      0.401710000000000     -0.850470000000000
C      -1.911820000000000      1.098450000000000     -1.283680000000000
C      -3.270290000000000      0.333530000000000      0.678670000000000
H      -4.037010000000000      0.972590000000000     -1.269920000000000
H      -3.197040000000000     -0.635060000000000     -1.255420000000000
H      -2.470190000000000     -0.330930000000000      1.066580000000000
H      -3.127990000000000      1.341930000000000      1.121060000000000
C      -4.628220000000000     -0.197030000000000      1.121000000000000
H      -1.780320000000000      1.054990000000000     -2.383270000000000
H      -5.424110000000000      0.497710000000000      0.776950000000000
H      -4.814400000000000     -1.206480000000000      0.697440000000000
H      -4.665840000000000     -0.257170000000000      2.228940000000000
C      -1.151720000000000     -2.253680000000000      2.555860000000000
C      -0.961290000000000     -2.679370000000000      1.260870000000000
C       0.218430000000000     -2.114100000000000      0.811990000000000
C       0.717350000000000     -1.350480000000000      1.791360000000000
N      -0.091180000000000     -1.422280000000000      2.943640000000000
C       1.962300000000000     -0.505090000000000      1.723580000000000
N       1.775950000000000      0.661300000000000      0.841990000000000
C       1.508950000000000      1.978050000000000      1.471650000000000
H      -1.631370000000000     -3.319680000000000      0.701530000000000
H      -1.993920000000000     -2.502550000000000      3.184070000000000
H       0.640690000000000     -2.254060000000000     -0.171350000000000
H       2.796390000000000     -1.124100000000000      1.329010000000000
H       2.236770000000000     -0.200580000000000      2.745740000000000
C       2.702210000000000      2.419110000000000      2.341330000000000
C       1.340200000000000      3.010400000000000      0.338500000000000
C       0.211610000000000      1.967790000000000      2.308220000000000
H       3.640880000000000      2.376700000000000      1.749140000000000
H       2.555760000000000      3.460690000000000      2.699790000000000
H       2.818360000000000      1.788400000000000      3.243150000000000
H       0.460650000000000      2.762590000000000     -0.290340000000000
H       1.182030000000000      4.034150000000000      0.744180000000000
H       2.239260000000000      3.028080000000000     -0.314390000000000
H      -0.673040000000000      1.763380000000000      1.668420000000000
H       0.253160000000000      1.203690000000000      3.107590000000000
H       0.057490000000000      2.954620000000000      2.797570000000000
Na      1.793800000000000     -6.428130000000000      5.220180000000000
C       0.554800000000000     -8.718850000000000      3.267370000000000
C      -0.773940000000000     -8.449009999999999      5.130160000000000
O       0.547830000000000     -8.650449999999999      4.677340000000000
C       1.981270000000000     -8.942710000000000      2.785210000000000
C      -0.773380000000000     -8.362159999999999      6.649870000000000
H      -0.062320000000000     -9.574420000000000      2.909540000000000
H       0.192420000000000     -7.763530000000000      2.823860000000000
H      -1.186620000000000     -7.492100000000000      4.736540000000000
H      -1.424740000000000     -9.304800000000000      4.838660000000000
H      -0.143400000000000     -7.510610000000000      6.984520000000000
H      -1.810010000000000     -8.207070000000000      7.017240000000000
H      -0.375310000000000     -9.303340000000000      7.085720000000000
H       2.379560000000000     -9.894330000000000      3.197080000000000
H       1.998400000000000     -8.997290000000000      1.675930000000000
H       2.631970000000000     -8.104360000000000      3.113080000000000
Na      1.099620000000000    -11.117910000000000      5.425400000000000
Mg      0.759940000000000     -3.912670000000000      9.554320000000001
H      -0.145470000000000     -3.898900000000000     12.577470000000000
C       0.666270000000000     -1.868730000000000     12.432589999999999
C       0.661280000000000     -3.341880000000000     12.059419999999999
C      -0.656240000000000     -1.163770000000000     12.100619999999999
H       0.849840000000000     -1.794750000000000     13.524740000000000
H       1.498810000000000     -1.358910000000000     11.902640000000000
H      -1.497010000000000     -1.658630000000000     12.633780000000000
H      -0.578490000000000     -0.117870000000000     12.465380000000000
C      -0.961820000000000     -1.117880000000000     10.601910000000000
H       1.647720000000000     -3.802000000000000     12.283880000000000
H      -1.138280000000000     -2.136420000000000     10.201230000000001
H      -1.880430000000000     -0.514650000000000     10.435660000000000
H      -0.125720000000000     -0.642140000000000     10.046060000000001
C      -2.094250000000000     -4.568400000000000      8.325780000000000
C      -2.569520000000000     -4.533010000000000      7.023800000000000
C      -1.519040000000000     -4.106590000000000      6.226380000000000
C      -0.458280000000000     -3.879650000000000      7.072120000000000
N      -0.814060000000000     -4.177990000000000      8.334320000000000
C       0.928580000000000     -3.384820000000000      6.717950000000000
N       1.668900000000000     -3.045660000000000      7.951220000000000
C       3.034000000000000     -2.495050000000000      7.890930000000000
H      -3.564860000000000     -4.791060000000000      6.692270000000000
H      -2.654860000000000     -4.865470000000000      9.204780000000000
H      -1.531300000000000     -3.964630000000000      5.153810000000000
H       1.443100000000000     -4.186530000000000      6.150450000000000
H       0.825630000000000     -2.479370000000000      6.089940000000000
C       3.005180000000000     -1.111080000000000      7.212540000000000
C       3.557100000000000     -2.320830000000000      9.328139999999999
C       3.976940000000000     -3.442300000000000      7.128040000000000
H       2.327510000000000     -0.426430000000000      7.768860000000000
H       4.020150000000000     -0.660370000000000      7.192010000000000
H       2.648550000000000     -1.180140000000000      6.164950000000000
H       3.600820000000000     -3.298490000000000      9.854170000000000
H       4.580100000000000     -1.882690000000000      9.322670000000000
H       2.895080000000000     -1.642230000000000      9.906540000000000
H       3.999910000000000     -4.440280000000000      7.615750000000000
H       3.650700000000000     -3.566590000000000      6.075040000000000
H       5.009680000000000     -3.031580000000000      7.112510000000000

-C 0
6-31g(d,p)
****
-H 0
6-31g(d,p)
****
-Mg 0
6-31g(d,p)
****
-N 0
6-31+g(d,p)
****
-Na 0
6-31g(d,p)
****
-O 0
6-31+g(d,p)
****


