%chk=lowest10_c1_a2_speciation0_speciationDFT2_speciationDFT36_rank05_E181.79.chk
%nprocshared=20
%mem=40GB
#p opt=loose PM7/gen scf=xqc 

lowest10_c1_a2_speciation0_speciationDFT2_speciationDFT36_rank05_E181.79 DFT input

0 1
Mg      0.569550000000000      0.533720000000000     -0.231060000000000
C      -2.539850000000000     -0.535600000000000      1.587940000000000
C      -3.171990000000000      0.503960000000000     -0.371440000000000
O      -2.268560000000000      0.543840000000000      0.714990000000000
C      -1.895640000000000     -0.273710000000000      2.941030000000000
C      -2.830300000000000      1.607420000000000     -1.363930000000000
H      -3.630350000000000     -0.658510000000000      1.772410000000000
H      -2.128250000000000     -1.478550000000000      1.172400000000000
H      -3.122160000000000     -0.470780000000000     -0.900540000000000
H      -4.211670000000000      0.673910000000000     -0.020250000000000
H      -1.808530000000000      1.465980000000000     -1.770380000000000
H      -3.551990000000000      1.588370000000000     -2.207880000000000
H      -2.887280000000000      2.596920000000000     -0.864610000000000
H      -2.288610000000000      0.666010000000000      3.378930000000000
H      -2.102760000000000     -1.120800000000000      3.627400000000000
H      -0.805510000000000     -0.174910000000000      2.842800000000000
H      -0.500170000000000      3.491660000000000     -0.737630000000000
C       1.412960000000000      2.994090000000000     -1.714260000000000
C       0.465720000000000      2.995820000000000     -0.520370000000000
C       0.791420000000000      2.298950000000000     -2.933600000000000
H       1.649280000000000      4.049190000000000     -1.958870000000000
H       2.351320000000000      2.464700000000000     -1.434870000000000
H       0.609370000000000      1.223460000000000     -2.714050000000000
H      -0.178300000000000      2.778550000000000     -3.185530000000000
C       1.712140000000000      2.409480000000000     -4.146840000000000
H       0.947960000000000      3.425340000000000      0.381270000000000
H       1.887420000000000      3.479110000000000     -4.391530000000000
H       2.687530000000000      1.918100000000000     -3.944720000000000
H       1.240940000000000      1.920680000000000     -5.025740000000000
C      -1.073950000000000     -1.396560000000000     -2.123180000000000
C      -1.319320000000000     -2.755620000000000     -2.039270000000000
C      -0.654420000000000     -3.213030000000000     -0.910890000000000
C      -0.046430000000000     -2.115400000000000     -0.347200000000000
N      -0.316630000000000     -1.028200000000000     -1.081870000000000
C       0.834010000000000     -2.061030000000000      0.888800000000000
N       1.027110000000000     -0.663360000000000      1.340300000000000
C       2.139430000000000     -0.347640000000000      2.258850000000000
H      -1.913120000000000     -3.344260000000000     -2.723190000000000
H      -1.442690000000000     -0.723110000000000     -2.889060000000000
H      -0.625220000000000     -4.226700000000000     -0.536550000000000
H       0.352300000000000     -2.629400000000000      1.709620000000000
H       1.795930000000000     -2.535960000000000      0.614230000000000
C       3.495050000000000     -0.429890000000000      1.534690000000000
C       1.954260000000000      1.092790000000000      2.778500000000000
C       2.116540000000000     -1.306930000000000      3.465490000000000
H       3.533730000000000      0.298630000000000      0.696280000000000
H       4.320580000000000     -0.193170000000000      2.241480000000000
H       3.682100000000000     -1.444110000000000      1.131570000000000
H       0.994480000000000      1.207070000000000      3.324460000000000
H       2.775860000000000      1.366060000000000      3.476310000000000
H       1.962320000000000      1.818210000000000      1.938570000000000
H       1.131000000000000     -1.254780000000000      3.977730000000000
H       2.287770000000000     -2.354510000000000      3.142180000000000
H       2.907470000000000     -1.041930000000000      4.198340000000000
Na     -5.852510000000000      2.540800000000000      7.450770000000000
C      -3.600040000000000      3.519640000000000      9.629740000000000
C      -4.379660000000000      1.418290000000000     10.162540000000000
O      -4.757710000000000      2.738440000000000      9.835800000000001
C      -4.013830000000000      4.943540000000000      9.287179999999999
C      -5.631350000000000      0.576420000000000     10.368740000000001
H      -2.979010000000000      3.559630000000000     10.553699999999999
H      -3.005060000000000      3.124960000000000      8.775230000000001
H      -3.793980000000000      0.957630000000000      9.334530000000001
H      -3.796490000000000      1.398620000000000     11.111260000000000
H      -6.239010000000000      0.559590000000000      9.439060000000000
H      -5.344820000000000     -0.464860000000000     10.628349999999999
H      -6.243500000000000      0.996310000000000     11.195060000000000
H      -4.606090000000000      5.380350000000000     10.119300000000001
H      -3.109710000000000      5.567540000000000      9.122909999999999
H      -4.628730000000000      4.950650000000000      8.362010000000000
Na     -5.767710000000000      3.669800000000000     12.083670000000000
Mg      0.513510000000000      6.395560000000000      8.646260000000000
H       2.319800000000000      8.664460000000000      7.620770000000000
C       1.568320000000000      9.549890000000000      9.483420000000001
C       1.374100000000000      8.769420000000000      8.190230000000000
C       2.486250000000000      8.842460000000001     10.493810000000000
H       1.970730000000000     10.554320000000001      9.236269999999999
H       0.573480000000000      9.676890000000000      9.962859999999999
H       2.563540000000000      9.492610000000001     11.392440000000001
H       2.037680000000000      7.875500000000000     10.805990000000000
C       3.895510000000000      8.582380000000001      9.963699999999999
H       0.608110000000000      9.249870000000000      7.547930000000000
H       3.871500000000000      7.856680000000000      9.124380000000000
H       4.364030000000000      9.529690000000000      9.624359999999999
H       4.517640000000000      8.143969999999999     10.772589999999999
C       0.183950000000000      5.730550000000000     11.734260000000001
C       0.089460000000000      4.525790000000000     12.411070000000000
C       0.183790000000000      3.520000000000000     11.461140000000000
C       0.352150000000000      4.153020000000000     10.249620000000000
N       0.336240000000000      5.481560000000000     10.423790000000000
C       0.520740000000000      3.515560000000000      8.883089999999999
N       0.916410000000000      4.545050000000000      7.898360000000000
C       1.157080000000000      4.192830000000000      6.487640000000000
H      -0.037950000000000      4.393360000000000     13.476810000000000
H       0.140010000000000      6.719070000000000     12.173190000000000
H       0.147230000000000      2.453440000000000     11.634990000000000
H      -0.444430000000000      3.044540000000000      8.606769999999999
H       1.315990000000000      2.749350000000000      8.950020000000000
C      -0.081130000000000      3.522970000000000      5.864950000000000
C       1.471960000000000      5.482690000000000      5.707820000000000
C       2.375500000000000      3.254670000000000      6.389870000000000
H      -0.961690000000000      4.196750000000000      5.935280000000000
H       0.102020000000000      3.289290000000000      4.793740000000000
H      -0.319550000000000      2.568650000000000      6.377750000000000
H       2.359700000000000      5.996420000000000      6.136300000000000
H       1.686890000000000      5.252070000000000      4.640340000000000
H       0.612130000000000      6.185320000000000      5.744500000000000
H       3.270890000000000      3.741700000000000      6.835140000000000
H       2.194850000000000      2.300020000000000      6.924220000000000
H       2.600420000000000      3.010590000000000      5.330730000000000

-C 0
6-31g(d,p)
****
-H 0
6-31g(d,p)
****
-Mg 0
6-31g(d,p)
****
-N 0
6-31+g(d,p)
****
-Na 0
6-31g(d,p)
****
-O 0
6-31+g(d,p)
****


