%chk=lowest10_c1_a2_speciation0_speciationDFT38_speciationDFT96_rank03_E186.40.chk
%nprocshared=20
%mem=40GB
#p opt=loose PM7/gen scf=xqc 

lowest10_c1_a2_speciation0_speciationDFT38_speciationDFT96_rank03_E186.40 DFT input

0 1
Mg     -0.001020000000000      0.314110000000000     -0.380560000000000
C      -1.663330000000000     -2.695000000000000     -1.011300000000000
C       0.686020000000000     -2.941470000000000     -0.670780000000000
O      -0.460930000000000     -2.125030000000000     -0.528250000000000
C      -2.117800000000000     -3.921590000000000     -0.226660000000000
C       1.053710000000000     -3.231560000000000     -2.123360000000000
H      -2.447480000000000     -1.916750000000000     -0.888910000000000
H      -1.620800000000000     -2.908930000000000     -2.096160000000000
H       1.533330000000000     -2.369020000000000     -0.243820000000000
H       0.619450000000000     -3.862220000000000     -0.058220000000000
H       1.110980000000000     -2.285430000000000     -2.700410000000000
H       2.044600000000000     -3.730730000000000     -2.154050000000000
H       0.312650000000000     -3.910320000000000     -2.589200000000000
H      -2.176690000000000     -3.692340000000000      0.856270000000000
H      -3.124860000000000     -4.223640000000000     -0.583530000000000
H      -1.424310000000000     -4.769520000000000     -0.391510000000000
H      -2.351500000000000      0.649230000000000     -2.151810000000000
C      -0.910580000000000     -0.082560000000000     -3.638470000000000
C      -1.285220000000000      0.759070000000000     -2.438220000000000
C      -1.700350000000000      0.385830000000000     -4.848130000000000
H       0.177270000000000      0.013460000000000     -3.834180000000000
H      -1.134610000000000     -1.145590000000000     -3.424330000000000
H      -2.786980000000000      0.287610000000000     -4.634060000000000
H      -1.463230000000000      1.454030000000000     -5.045240000000000
C      -1.351380000000000     -0.443150000000000     -6.073550000000000
H      -0.992290000000000      1.821980000000000     -2.563690000000000
H      -0.269080000000000     -0.346860000000000     -6.305250000000000
H      -1.594580000000000     -1.512320000000000     -5.894120000000000
H      -1.941670000000000     -0.076480000000000     -6.937370000000000
C       0.266350000000000      2.144640000000000      4.113870000000000
C       1.249320000000000      3.011110000000000      3.687450000000000
C       2.020550000000000      2.319810000000000      2.765720000000000
C       1.483730000000000      1.107640000000000      2.652680000000000
N       0.386570000000000      1.014230000000000      3.523960000000000
C       1.951030000000000     -0.066590000000000      1.814110000000000
N       1.850190000000000      0.086890000000000      0.350560000000000
C       2.808100000000000      0.824680000000000     -0.485220000000000
H       1.392770000000000      4.028710000000000      4.028270000000000
H      -0.507600000000000      2.352250000000000      4.839040000000000
H       2.891030000000000      2.706630000000000      2.266140000000000
H       1.279370000000000     -0.914370000000000      2.070280000000000
H       2.966060000000000     -0.380710000000000      2.113810000000000
C       4.211360000000000      0.796380000000000      0.124740000000000
C       2.856760000000000      0.119960000000000     -1.855650000000000
C       2.314510000000000      2.266290000000000     -0.727940000000000
H       4.524700000000000     -0.260000000000000      0.275250000000000
H       4.937470000000000      1.295640000000000     -0.547160000000000
H       4.225400000000000      1.313870000000000      1.101130000000000
H       1.850730000000000      0.106470000000000     -2.321000000000000
H       3.546940000000000      0.642990000000000     -2.552390000000000
H       3.191310000000000     -0.933840000000000     -1.749920000000000
H       1.340790000000000      2.269660000000000     -1.266760000000000
H       2.165050000000000      2.823730000000000      0.206800000000000
H       3.046550000000000      2.825870000000000     -1.348550000000000
C      -2.205060000000000      1.439250000000000      1.581110000000000
C      -1.845110000000000     -0.830840000000000      2.113550000000000
O      -1.791510000000000      0.169430000000000      1.116220000000000
C      -1.359270000000000      2.535270000000000      0.928790000000000
C      -3.268320000000000     -1.298280000000000      2.341950000000000
H      -3.263000000000000      1.592070000000000      1.287900000000000
H      -2.114460000000000      1.555580000000000      2.682510000000000
H      -1.236910000000000     -1.690960000000000      1.769780000000000
H      -1.382470000000000     -0.523640000000000      3.067230000000000
H      -3.707330000000000     -1.647230000000000      1.384740000000000
H      -3.264150000000000     -2.131110000000000      3.074820000000000
H      -3.871510000000000     -0.460440000000000      2.746130000000000
H      -0.292400000000000      2.431020000000000      1.196390000000000
H      -1.436210000000000      2.494730000000000     -0.176120000000000
H      -1.704880000000000      3.531820000000000      1.272390000000000
Na     10.971330000000000     -3.476620000000000      7.228650000000000
C      11.812870000000000     -2.981770000000000      4.095420000000000
C      12.013320000000000     -5.210210000000000      4.641820000000000
O      12.351210000000000     -3.895150000000000      5.027270000000000
C      12.188730000000000     -1.566410000000000      4.510210000000000
C      12.582250000000000     -6.190100000000000      5.657810000000000
H      12.232290000000001     -3.159960000000000      3.078930000000000
H      10.700960000000000     -3.046510000000000      4.076010000000000
H      10.908550000000000     -5.344990000000000      4.622930000000000
H      12.453630000000000     -5.455820000000000      3.648630000000000
H      12.158860000000001     -5.986290000000000      6.664250000000000
H      12.322720000000000     -7.229030000000000      5.363100000000000
H      13.688179999999999     -6.095010000000000      5.702180000000000
H      13.293730000000000     -1.455330000000000      4.532830000000000
H      11.769830000000001     -0.838540000000000      3.783330000000000
H      11.780260000000000     -1.342360000000000      5.518520000000000
Na     14.952450000000001     -3.770670000000000      4.601890000000000
Mg      5.479110000000000     -6.218070000000000      4.616500000000000
C       2.472400000000000     -6.492610000000000      6.073410000000000
C       4.058080000000000     -5.624020000000000      7.636200000000000
O       3.833250000000000     -6.255800000000000      6.392070000000000
C       1.557740000000000     -5.270060000000000      6.184600000000000
C       3.677930000000000     -6.500740000000000      8.823000000000000
H       2.454690000000000     -6.795120000000000      5.007280000000000
H       2.074110000000000     -7.354480000000000      6.646870000000000
H       5.146560000000000     -5.431800000000000      7.704740000000000
H       3.592160000000000     -4.619890000000000      7.685480000000000
H       3.982990000000000     -5.991620000000000      9.760960000000001
H       4.197350000000000     -7.479160000000000      8.757720000000001
H       2.582610000000000     -6.665290000000000      8.850030000000000
H       1.969450000000000     -4.423910000000000      5.603590000000000
H       1.425440000000000     -4.969500000000000      7.243520000000000
H       0.558380000000000     -5.520130000000000      5.774360000000000
H       6.534170000000000     -8.530780000000000      5.504870000000000
C       8.212490000000001     -7.126600000000000      5.584730000000000
C       6.978430000000000     -7.722470000000000      4.889350000000000
C       7.927150000000000     -6.427390000000000      6.928170000000000
H       8.959899999999999     -7.932540000000000      5.742670000000000
H       8.654450000000001     -6.365980000000000      4.907100000000000
H       8.889010000000001     -6.028710000000000      7.322080000000000
H       7.249400000000000     -5.564400000000000      6.765930000000000
C       7.333380000000000     -7.350480000000000      7.992420000000000
H       7.264910000000000     -8.137160000000000      3.902520000000000
H       6.342300000000000     -7.728270000000000      7.673620000000000
H       8.009819999999999     -8.208449999999999      8.187390000000001
H       7.196860000000000     -6.785090000000000      8.940390000000001
C       4.974640000000000     -2.591010000000000      6.063820000000000
C       6.188920000000000     -3.004060000000000      5.547880000000000
C       5.914490000000000     -3.648540000000000      4.358080000000000
C       4.595130000000000     -3.624200000000000      4.211740000000000
N       4.010120000000000     -2.937910000000000      5.289680000000000
C       3.826980000000000     -4.273030000000000      3.088600000000000
N       4.080400000000000     -5.720730000000000      3.119670000000000
C       3.574290000000000     -6.567960000000000      2.012380000000000
H       7.163490000000000     -2.878400000000000      6.003370000000000
H       4.828490000000000     -2.060420000000000      6.993040000000000
H       6.624670000000000     -4.122280000000000      3.694370000000000
H       4.158860000000000     -3.823360000000000      2.132990000000000
H       2.743900000000000     -4.077710000000000      3.235180000000000
C       4.291580000000000     -6.232260000000000      0.689630000000000
C       3.843330000000000     -8.041900000000000      2.358390000000000
C       2.050060000000000     -6.381180000000000      1.829090000000000
H       5.387300000000000     -6.376940000000000      0.792420000000000
H       3.924150000000000     -6.890520000000000     -0.128710000000000
H       4.096820000000000     -5.186850000000000      0.374750000000000
H       3.320660000000000     -8.329870000000000      3.294660000000000
H       3.481250000000000     -8.708250000000000      1.543250000000000
H       4.930960000000000     -8.218560000000000      2.493540000000000
H       1.507830000000000     -6.623720000000000      2.767500000000000
H       1.801840000000000     -5.339660000000000      1.539680000000000
H       1.664550000000000     -7.047900000000000      1.026420000000000

-C 0
6-31g(d,p)
****
-H 0
6-31g(d,p)
****
-Mg 0
6-31g(d,p)
****
-N 0
6-31+g(d,p)
****
-Na 0
6-31g(d,p)
****
-O 0
6-31+g(d,p)
****


