%chk=lowest10_c1_a2_speciation7_speciationDFT37b_speciationDFT96_rank01_E208.96.chk
%nprocshared=20
%mem=40GB
#p opt=loose PM7/gen scf=xqc 

lowest10_c1_a2_speciation7_speciationDFT37b_speciationDFT96_rank01_E208.96 DFT input

0 1
Mg      0.187700000000000      0.451600000000000     -0.178710000000000
C       0.214260000000000     -1.882380000000000     -2.776090000000000
C       1.731860000000000     -2.387450000000000     -1.004200000000000
O       0.604140000000000     -1.649500000000000     -1.435440000000000
C      -0.291610000000000     -3.298860000000000     -3.028660000000000
C       3.014190000000000     -2.040630000000000     -1.755950000000000
H      -0.631200000000000     -1.189750000000000     -2.978550000000000
H       1.006330000000000     -1.607160000000000     -3.498100000000000
H       1.905550000000000     -2.103650000000000      0.052730000000000
H       1.532780000000000     -3.477980000000000     -0.982880000000000
H       3.176870000000000     -0.942980000000000     -1.750300000000000
H       3.873400000000000     -2.532250000000000     -1.253940000000000
H       2.970390000000000     -2.407990000000000     -2.799960000000000
H      -1.097720000000000     -3.558650000000000     -2.313470000000000
H      -0.696630000000000     -3.357360000000000     -4.060760000000000
H       0.535880000000000     -4.029910000000000     -2.940150000000000
H      -0.426440000000000      1.657000000000000     -2.811080000000000
C       1.760670000000000      1.559510000000000     -2.986210000000000
C       0.489980000000000      1.818380000000000     -2.206770000000000
C       1.858570000000000      2.550630000000000     -4.132560000000000
H       2.636920000000000      1.667460000000000     -2.314330000000000
H       1.745740000000000      0.523690000000000     -3.377130000000000
H       0.971790000000000      2.432480000000000     -4.792790000000000
H       1.870300000000000      3.582920000000000     -3.719870000000000
C       3.123970000000000      2.315770000000000     -4.941480000000000
H       0.496490000000000      2.811170000000000     -1.711160000000000
H       4.019570000000000      2.439990000000000     -4.295890000000000
H       3.119640000000000      1.290550000000000     -5.369700000000000
H       3.166530000000000      3.054080000000000     -5.767410000000000
C      -3.031040000000000      0.138500000000000      3.456320000000000
C      -2.284830000000000      1.043960000000000      4.177830000000000
C      -0.952450000000000      0.778280000000000      3.901140000000000
C      -0.938620000000000     -0.231210000000000      3.034490000000000
N      -2.259590000000000     -0.629460000000000      2.778560000000000
C       0.252080000000000     -0.950640000000000      2.429560000000000
N       1.089340000000000     -0.173260000000000      1.496880000000000
C       2.118170000000000      0.796010000000000      1.899390000000000
H      -2.675780000000000      1.802830000000000      4.844210000000000
H      -4.107870000000000      0.055330000000000      3.438700000000000
H      -0.111690000000000      1.292090000000000      4.331550000000000
H      -0.167230000000000     -1.784430000000000      1.825900000000000
H       0.864070000000000     -1.421980000000000      3.218300000000000
C       2.727390000000000      0.424460000000000      3.252650000000000
C       3.230940000000000      0.752460000000000      0.833200000000000
C       1.539910000000000      2.226330000000000      1.901680000000000
H       3.133010000000000     -0.609820000000000      3.202180000000000
H       3.547590000000000      1.121460000000000      3.515450000000000
H       1.962100000000000      0.468440000000000      4.047320000000000
H       2.820720000000000      1.000120000000000     -0.166420000000000
H       4.035260000000000      1.484680000000000      1.061730000000000
H       3.681660000000000     -0.260570000000000      0.768800000000000
H       1.196330000000000      2.519930000000000      0.884660000000000
H       0.677110000000000      2.330520000000000      2.573800000000000
H       2.314810000000000      2.955490000000000      2.220950000000000
C      -2.955890000000000      0.744430000000000     -0.103490000000000
C      -2.439850000000000     -1.548830000000000     -0.304360000000000
O      -2.020740000000000     -0.220360000000000     -0.544010000000000
C      -2.222650000000000      1.963610000000000      0.460520000000000
C      -3.477440000000000     -1.985310000000000     -1.318830000000000
H      -3.559120000000000      1.070280000000000     -0.974410000000000
H      -3.637920000000000      0.366650000000000      0.688300000000000
H      -1.554290000000000     -2.209050000000000     -0.391930000000000
H      -2.810850000000000     -1.712420000000000      0.722060000000000
H      -3.075690000000000     -1.859080000000000     -2.345210000000000
H      -3.728400000000000     -3.052040000000000     -1.146190000000000
H      -4.392750000000000     -1.371570000000000     -1.197840000000000
H      -1.609810000000000      1.692020000000000      1.338790000000000
H      -1.548370000000000      2.410300000000000     -0.297240000000000
H      -2.958120000000000      2.731150000000000      0.777670000000000
Na      0.274280000000000     -1.449640000000000      9.947440000000000
C       1.734720000000000     -0.246110000000000      7.375010000000000
C       1.234500000000000     -2.470240000000000      6.825750000000000
O       1.600870000000000     -1.569940000000000      7.853920000000000
C       0.404850000000000      0.496500000000000      7.453630000000000
C       2.466790000000000     -3.062270000000000      6.146680000000000
H       2.466700000000000      0.278750000000000      8.024580000000000
H       2.153130000000000     -0.203490000000000      6.345780000000000
H       0.658830000000000     -3.298050000000000      7.292220000000000
H       0.559000000000000     -2.009010000000000      6.071120000000000
H       3.098150000000000     -3.597810000000000      6.885970000000000
H       2.145840000000000     -3.785290000000000      5.368090000000000
H       3.069730000000000     -2.265550000000000      5.664400000000000
H       0.036890000000000      0.511630000000000      8.500890000000000
H       0.542970000000000      1.541600000000000      7.107070000000000
H      -0.355110000000000      0.007480000000000      6.811130000000000
C      -2.572140000000000     -2.097030000000000      8.275980000000001
C      -2.914990000000000     -2.151400000000000     10.635680000000001
O      -1.986660000000000     -2.100210000000000      9.566150000000000
C      -3.442600000000000     -0.871460000000000      7.995750000000000
C      -3.745020000000000     -3.434630000000000     10.664300000000001
H      -1.732260000000000     -2.063920000000000      7.550610000000000
H      -3.108840000000000     -3.044420000000000      8.064600000000000
H      -2.316890000000000     -2.135840000000000     11.572300000000000
H      -3.551680000000000     -1.243610000000000     10.676550000000001
H      -3.076410000000000     -4.320840000000000     10.644439999999999
H      -4.349400000000000     -3.458980000000000     11.595210000000000
H      -4.445720000000000     -3.474280000000000      9.806030000000000
H      -2.867300000000000      0.058500000000000      8.187870000000000
H      -3.759470000000000     -0.884960000000000      6.931550000000000
H      -4.358780000000000     -0.881910000000000      8.620050000000001
Na      3.485480000000000     -2.551270000000000      8.960450000000000
C       2.380970000000000     -1.980870000000000     12.049519999999999
C       1.761100000000000     -4.097050000000000     11.264900000000001
O       2.068810000000000     -2.762930000000000     10.915250000000000
C       3.047340000000000     -0.692150000000000     11.584289999999999
C       0.333040000000000     -4.234090000000000     11.788539999999999
H       1.451510000000000     -1.709330000000000     12.594519999999999
H       3.094780000000000     -2.495290000000000     12.731490000000001
H       1.841440000000000     -4.705520000000000     10.338620000000001
H       2.498430000000000     -4.526810000000000     11.978470000000000
H      -0.387810000000000     -3.855070000000000     11.035290000000000
H       0.113440000000000     -5.304160000000000     11.986150000000000
H       0.204410000000000     -3.670930000000000     12.734190000000000
H       2.375000000000000     -0.138810000000000     10.894080000000001
H       3.274320000000000     -0.046610000000000     12.458600000000001
H       3.995430000000000     -0.921360000000000     11.054340000000000
C       6.559200000000000     -3.022560000000000     10.110120000000000
C       6.536350000000000     -1.172670000000000      8.717660000000000
O       5.751020000000000     -2.142630000000000      9.366970000000000
C       5.655250000000000     -4.060880000000000     10.761260000000000
C       5.602970000000000     -0.238600000000000      7.958980000000000
H       7.278290000000000     -3.557530000000000      9.449470000000000
H       7.095420000000000     -2.476300000000000     10.918240000000001
H       7.106540000000000     -0.564940000000000      9.455920000000001
H       7.223670000000000     -1.648120000000000      7.982120000000000
H       4.902710000000000      0.252500000000000      8.668160000000000
H       6.188470000000000      0.542960000000000      7.431840000000000
H       5.012610000000000     -0.812990000000000      7.212400000000000
H       5.100950000000000     -4.627280000000000      9.981949999999999
H       6.258080000000000     -4.770860000000000     11.364360000000000
H       4.922250000000000     -3.558570000000000     11.425960000000000
Mg     -0.425660000000000     -1.543020000000000     18.833990000000000
C      -1.750040000000000     -3.598240000000000     16.733950000000000
C      -1.900930000000000     -1.349790000000000     15.959960000000001
O      -2.001400000000000     -2.241560000000000     17.052150000000001
C      -0.348760000000000     -3.863370000000000     16.182050000000000
C      -3.059200000000000     -1.503810000000000     14.983969999999999
H      -1.821010000000000     -4.154450000000000     17.688990000000000
H      -2.542350000000000     -4.024760000000000     16.087009999999999
H      -1.954210000000000     -0.323460000000000     16.383700000000001
H      -0.916930000000000     -1.399650000000000     15.451290000000000
H      -4.021480000000000     -1.424370000000000     15.532400000000001
H      -3.006440000000000     -0.699600000000000     14.221240000000000
H      -3.003610000000000     -2.481870000000000     14.465410000000000
H       0.416090000000000     -3.382660000000000     16.822450000000000
H      -0.164670000000000     -4.957750000000000     16.159630000000000
H      -0.252680000000000     -3.481650000000000     15.147679999999999
H       2.108460000000000     -1.171660000000000     18.219390000000001
C       1.218400000000000      0.812490000000000     18.315899999999999
C       1.199030000000000     -0.637910000000000     17.875409999999999
C       1.200590000000000      0.905460000000000     19.845350000000000
H       2.132280000000000      1.284310000000000     17.900680000000001
H       0.320050000000000      1.331880000000000     17.914130000000000
H       0.236780000000000      0.508670000000000     20.230619999999998
H       2.025680000000000      0.300810000000000     20.278369999999999
C       1.370230000000000      2.348370000000000     20.302869999999999
H       1.106320000000000     -0.720060000000000     16.773289999999999
H       2.355420000000000      2.731640000000000     19.960920000000002
H       0.563080000000000      2.989100000000000     19.889130000000002
H       1.336480000000000      2.395360000000000     21.411539999999999
C      -2.169270000000000      0.367060000000000     21.756550000000001
C      -2.626890000000000      0.396130000000000     20.458500000000001
C      -2.702660000000000     -0.913410000000000     20.019300000000001
C      -2.290320000000000     -1.712200000000000     21.008250000000000
N      -1.958450000000000     -0.961550000000000     22.155230000000000
C      -2.189630000000000     -3.213450000000000     20.954370000000001
N      -1.112800000000000     -3.652660000000000     20.048079999999999
C       0.169390000000000     -4.075440000000000     20.665360000000000
H      -2.867820000000000      1.287240000000000     19.893529999999998
H      -1.989700000000000      1.230280000000000     22.381580000000000
H      -3.031970000000000     -1.228050000000000     19.040820000000000
H      -3.156520000000000     -3.620400000000000     20.588909999999998
H      -2.043580000000000     -3.594230000000000     21.978339999999999
C      -0.028190000000000     -5.337270000000000     21.530770000000000
C       1.145130000000000     -4.435070000000000     19.528050000000000
C       0.807170000000000     -2.943310000000000     21.498200000000001
H      -0.507350000000000     -6.139910000000000     20.930430000000001
H       0.950860000000000     -5.710240000000000     21.901140000000002
H      -0.651510000000000     -5.144570000000000     22.424389999999999
H       1.356690000000000     -3.547950000000000     18.897570000000002
H       2.116830000000000     -4.794600000000000     19.933859999999999
H       0.721230000000000     -5.234030000000000     18.882180000000002
H       1.017990000000000     -2.057460000000000     20.862100000000002
H       0.148150000000000     -2.631650000000000     22.331309999999998
H       1.769300000000000     -3.282400000000000     21.940729999999999

-C 0
6-31g(d,p)
****
-H 0
6-31g(d,p)
****
-Mg 0
6-31g(d,p)
****
-N 0
6-31+g(d,p)
****
-Na 0
6-31g(d,p)
****
-O 0
6-31+g(d,p)
****


