%chk=lowest10_c1_a2_speciation7_speciationDFT1_speciationDFT37b_rank03_E206.10.chk
%nprocshared=20
%mem=40GB
#p opt=loose PM7/gen scf=xqc 

lowest10_c1_a2_speciation7_speciationDFT1_speciationDFT37b_rank03_E206.10 DFT input

0 1
Mg      0.342910000000000      0.239550000000000     -0.314060000000000
C      -0.936310000000000     -1.803670000000000     -2.401800000000000
C      -1.076030000000000      0.441740000000000     -3.192780000000000
O      -1.180940000000000     -0.444020000000000     -2.098610000000000
C       0.455730000000000     -2.079130000000000     -2.969560000000000
C      -2.234820000000000      0.279740000000000     -4.162640000000000
H      -0.993390000000000     -2.341230000000000     -1.438280000000000
H      -1.742030000000000     -2.242310000000000     -3.021910000000000
H      -1.130670000000000      1.468620000000000     -2.769420000000000
H      -0.091810000000000      0.389250000000000     -3.702250000000000
H      -3.193600000000000      0.317830000000000     -3.603840000000000
H      -2.211010000000000      1.102150000000000     -4.907100000000000
H      -2.150910000000000     -0.687630000000000     -4.697170000000000
H       1.229790000000000     -1.553400000000000     -2.376000000000000
H       0.656540000000000     -3.170250000000000     -2.931720000000000
H       0.516090000000000     -1.752800000000000     -4.026500000000000
H       2.841650000000000      0.566430000000000     -0.935800000000000
C       1.977700000000000      2.566970000000000     -0.850580000000000
C       1.944370000000000      1.115810000000000     -1.283830000000000
C       1.961240000000000      2.674800000000000      0.678550000000000
H       2.898000000000000      3.019150000000000     -1.270020000000000
H       1.085750000000000      3.095640000000000     -1.255510000000000
H       0.985710000000000      2.314240000000000      1.066490000000000
H       2.763330000000000      2.047300000000000      1.120960000000000
C       2.180920000000000      4.116100000000000      1.120810000000000
H       1.840950000000000      1.023630000000000     -2.383400000000000
H       3.180560000000000      4.457880000000000      0.776750000000000
H       1.399870000000000      4.782140000000000      0.697250000000000
H       2.147710000000000      4.178820000000000      2.228740000000000
C      -1.339960000000000      2.133190000000000      2.554510000000000
C      -1.803310000000000      2.181320000000000      1.259180000000000
C      -1.903110000000000      0.877040000000000      0.809780000000000
C      -1.490650000000000      0.063080000000000      1.788720000000000
N      -1.148720000000000      0.798900000000000      2.941080000000000
C      -1.381100000000000     -1.437460000000000      1.720900000000000
N      -0.277520000000000     -1.859680000000000      0.840230000000000
C       0.995920000000000     -2.286630000000000      1.470710000000000
H      -2.023730000000000      3.081890000000000      0.700450000000000
H      -1.136380000000000      2.986580000000000      3.184570000000000
H      -2.236090000000000      0.581250000000000     -0.173230000000000
H      -2.333400000000000     -1.848020000000000      1.324640000000000
H      -1.256200000000000     -1.828310000000000      2.742920000000000
C       0.780920000000000     -3.540440000000000      2.340460000000000
C       1.974520000000000     -2.656710000000000      0.337960000000000
C       1.635580000000000     -1.157920000000000      2.307430000000000
H       0.274700000000000     -4.332130000000000      1.748410000000000
H       1.756120000000000     -3.934440000000000      2.699180000000000
H       0.176640000000000     -3.325390000000000      3.242200000000000
H       2.199710000000000     -1.771020000000000     -0.290760000000000
H       2.940080000000000     -3.031570000000000      0.743890000000000
H       1.540210000000000     -3.444090000000000     -0.314940000000000
H       1.901190000000000     -0.289570000000000      1.667790000000000
H       0.952970000000000     -0.811770000000000      3.106640000000000
H       2.567100000000000     -1.517880000000000      2.797150000000000
Na    -11.683140000000000     -7.833770000000000     -3.789150000000000
C     -12.438060000000000     -4.873390000000000     -4.715420000000000
C     -11.728240000000000     -4.676210000000000     -2.488220000000000
O     -12.392460000000000     -5.484720000000000     -3.440720000000000
C     -11.207380000000001     -5.240960000000000     -5.538330000000000
C     -12.706930000000000     -3.746230000000000     -1.775570000000000
H     -13.337100000000000     -5.255490000000000     -5.243910000000000
H     -12.560630000000000     -3.768450000000000     -4.658050000000000
H     -11.271440000000000     -5.350690000000000     -1.732890000000000
H     -10.889889999999999     -4.093300000000000     -2.930120000000000
H     -13.495340000000001     -4.333180000000000     -1.260090000000000
H     -12.159940000000001     -3.147180000000000     -1.017620000000000
H     -13.185770000000000     -3.053310000000000     -2.497650000000000
H     -11.137689999999999     -6.342960000000000     -5.652670000000000
H     -11.284390000000000     -4.780900000000000     -6.545280000000000
H     -10.284319999999999     -4.869230000000000     -5.048840000000000
C      -8.469740000000000     -7.046010000000000     -3.190600000000000
C      -8.777699999999999     -9.406050000000000     -3.331300000000000
O      -9.382740000000000     -8.127670000000000     -3.246380000000000
C      -7.601900000000000     -6.906730000000000     -4.441630000000000
C      -7.939440000000000     -9.767310000000000     -2.105410000000000
H      -9.082260000000000     -6.122600000000000     -3.122470000000000
H      -7.861390000000000     -7.067080000000000     -2.263290000000000
H      -9.607450000000000    -10.143500000000000     -3.381410000000000
H      -8.210440000000000     -9.535610000000000     -4.276160000000000
H      -8.544750000000001     -9.647169999999999     -1.182390000000000
H      -7.609390000000000    -10.824140000000000     -2.185990000000000
H      -7.031590000000000     -9.133990000000001     -2.043910000000000
H      -8.241520000000000     -6.859940000000000     -5.347920000000000
H      -7.010060000000000     -5.971160000000000     -4.371820000000000
H      -6.887770000000000     -7.750230000000000     -4.528470000000000
Na    -14.469490000000000     -6.129630000000000     -2.443920000000000
C     -14.262829999999999     -9.336300000000000     -3.302560000000000
C     -13.377750000000001     -8.934300000000000     -1.173250000000000
O     -13.626720000000001     -8.399960000000000     -2.457560000000000
C     -14.824059999999999     -8.599280000000000     -4.512250000000000
C     -12.142370000000000     -9.832400000000000     -1.158130000000000
H     -13.526120000000001    -10.083460000000001     -3.667730000000000
H     -15.115679999999999     -9.845250000000000     -2.799730000000000
H     -13.180429999999999     -8.076910000000000     -0.494580000000000
H     -14.265590000000000     -9.457970000000000     -0.754970000000000
H     -11.257730000000000     -9.270709999999999     -1.522560000000000
H     -11.945910000000000    -10.171390000000001     -0.119420000000000
H     -12.296709999999999    -10.728000000000000     -1.793760000000000
H     -14.010320000000000     -8.067390000000000     -5.050320000000000
H     -15.301439999999999     -9.321590000000000     -5.207300000000000
H     -15.585160000000000     -7.858410000000000     -4.189840000000000
C     -17.719230000000000     -6.454790000000000     -1.877870000000000
C     -17.386720000000000     -4.962390000000000     -3.616950000000000
O     -16.772310000000001     -5.879670000000000     -2.745100000000000
C     -16.988160000000001     -7.411730000000000     -0.945630000000000
C     -16.316590000000001     -4.401850000000000     -4.544200000000000
H     -18.213229999999999     -5.675990000000000     -1.254060000000000
H     -18.473099999999999     -7.039680000000000     -2.451050000000000
H     -18.156600000000001     -5.465770000000000     -4.244090000000000
H     -17.831840000000000     -4.114530000000000     -3.049100000000000
H     -15.852320000000001     -5.226470000000000     -5.126410000000000
H     -16.764650000000000     -3.671280000000000     -5.249180000000000
H     -15.526140000000000     -3.893250000000000     -3.950630000000000
H     -16.223880000000001     -6.861100000000000     -0.355630000000000
H     -17.705539999999999     -7.892630000000000     -0.249010000000000
H     -16.480509999999999     -8.200720000000000     -1.538200000000000
Mg     -6.843410000000000     -1.984820000000000      1.983960000000000
H      -4.238910000000000     -3.392860000000000      1.120230000000000
C      -5.313500000000000     -3.316110000000000     -0.782000000000000
C      -5.265120000000000     -3.520540000000000      0.720680000000000
C      -4.449150000000000     -4.368090000000000     -1.470430000000000
H      -6.367620000000000     -3.402100000000000     -1.125600000000000
H      -4.943930000000000     -2.294510000000000     -1.020190000000000
H      -3.401380000000000     -4.276640000000000     -1.109300000000000
H      -4.831960000000000     -5.380950000000000     -1.216080000000000
C      -4.470590000000000     -4.195190000000000     -2.981620000000000
H      -5.686070000000000     -4.505550000000000      1.011690000000000
H      -5.507530000000000     -4.297680000000000     -3.364120000000000
H      -4.075280000000000     -3.195620000000000     -3.259730000000000
H      -3.835050000000000     -4.977570000000000     -3.445860000000000
C      -6.004910000000000     -1.472200000000000      4.996790000000000
C      -6.456480000000000     -0.561950000000000      5.939860000000000
C      -7.433970000000000      0.202450000000000      5.321320000000000
C      -7.528390000000000     -0.259810000000000      4.028820000000000
N      -6.667050000000000     -1.277570000000000      3.850250000000000
C      -8.441680000000000      0.236150000000000      2.924680000000000
N      -8.096819999999999     -0.421780000000000      1.646850000000000
C      -8.817010000000000     -0.104260000000000      0.401480000000000
H      -6.116480000000000     -0.467960000000000      6.961030000000000
H      -5.243000000000000     -2.228510000000000      5.149360000000000
H      -8.005140000000001      1.010200000000000      5.761560000000000
H      -8.304399999999999      1.330160000000000      2.825300000000000
H      -9.486340000000000      0.005190000000000      3.219010000000000
C      -8.561769999999999      1.364760000000000      0.013710000000000
C      -8.279730000000001     -1.006020000000000     -0.724700000000000
C     -10.325939999999999     -0.360270000000000      0.563450000000000
H      -7.471160000000000      1.543870000000000     -0.111860000000000
H      -9.071260000000001      1.614650000000000     -0.941160000000000
H      -8.942750000000000      2.058710000000000      0.789910000000000
H      -8.452400000000001     -2.077510000000000     -0.487340000000000
H      -8.790699999999999     -0.778160000000000     -1.686810000000000
H      -7.189120000000000     -0.848940000000000     -0.868520000000000
H     -10.508860000000000     -1.419480000000000      0.845720000000000
H     -10.760220000000000      0.297170000000000      1.344120000000000
H     -10.860609999999999     -0.150370000000000     -0.387880000000000

-C 0
6-31g(d,p)
****
-H 0
6-31g(d,p)
****
-Mg 0
6-31g(d,p)
****
-N 0
6-31+g(d,p)
****
-Na 0
6-31g(d,p)
****
-O 0
6-31+g(d,p)
****


