%chk=lowest10_c1_a2_speciation7_speciationDFT1_speciationDFT37b_rank10_E206.70.chk
%nprocshared=20
%mem=40GB
#p opt=loose PM7/gen scf=xqc 

lowest10_c1_a2_speciation7_speciationDFT1_speciationDFT37b_rank10_E206.70 DFT input

0 1
Mg      0.069610000000000     -0.414910000000000     -0.316870000000000
C      -1.058590000000000      1.722890000000000     -2.409890000000000
C       0.957860000000000      0.722950000000000     -3.197080000000000
O       0.241190000000000      1.255810000000000     -2.103280000000000
C      -1.992370000000000      0.652970000000000     -2.975110000000000
C       1.398660000000000      1.806740000000000     -4.167760000000000
H      -1.498250000000000      2.043810000000000     -1.447850000000000
H      -1.034410000000000      2.637940000000000     -3.034260000000000
H       1.874490000000000      0.257050000000000     -2.773840000000000
H       0.420810000000000     -0.103070000000000     -3.706830000000000
H       1.919480000000000      2.614020000000000     -3.610990000000000
H       2.092580000000000      1.371470000000000     -4.916160000000000
H       0.519890000000000      2.224350000000000     -4.698710000000000
H      -1.930760000000000     -0.274260000000000     -2.371780000000000
H      -3.036770000000000      1.028350000000000     -2.948670000000000
H      -1.733790000000000      0.426270000000000     -4.028140000000000
H      -0.893310000000000     -2.752130000000000     -0.940120000000000
C       1.270880000000000     -2.997010000000000     -0.852930000000000
C       0.029370000000000     -2.245380000000000     -1.287140000000000
C       1.370180000000000     -3.034620000000000      0.676210000000000
H       1.206450000000000     -4.020930000000000     -1.271710000000000
H       2.173610000000000     -2.486550000000000     -1.257190000000000
H       1.539020000000000     -2.007810000000000      1.063450000000000
H       0.427170000000000     -3.421210000000000      1.117050000000000
C       2.513240000000000     -3.937830000000000      1.121240000000000
H       0.002020000000000     -2.112120000000000     -2.387190000000000
H       2.316580000000000     -4.975950000000000      0.777620000000000
H       3.479080000000000     -3.588330000000000      0.699210000000000
H       2.581710000000000     -3.938560000000000      2.229310000000000
C       2.558980000000000      0.104400000000000      2.559050000000000
C       2.828920000000000      0.483170000000000      1.263480000000000
C       1.745900000000000      1.217950000000000      0.815990000000000
C       0.836990000000000      1.266050000000000      1.796600000000000
N       1.306600000000000      0.601830000000000      2.947850000000000
C      -0.516690000000000      1.923500000000000      1.731030000000000
N      -1.434500000000000      1.184890000000000      0.845160000000000
C      -2.441320000000000      0.293580000000000      1.472990000000000
H       3.719820000000000      0.228910000000000      0.703710000000000
H       3.200450000000000     -0.495650000000000      3.187910000000000
H       1.652910000000000      1.655660000000000     -0.166040000000000
H      -0.394570000000000      2.956900000000000      1.341430000000000
H      -0.918160000000000      2.006170000000000      2.753370000000000
C      -3.422720000000000      1.104390000000000      2.342080000000000
C      -3.249420000000000     -0.369640000000000      0.339770000000000
C      -1.783140000000000     -0.825080000000000      2.308590000000000
H      -3.860010000000000      1.935020000000000      1.748340000000000
H      -4.248280000000000      0.454090000000000      2.703270000000000
H      -2.936120000000000      1.525960000000000      3.242090000000000
H      -2.594180000000000     -1.005570000000000     -0.289760000000000
H      -4.052620000000000     -1.021030000000000      0.747700000000000
H      -3.719320000000000      0.398690000000000     -0.311150000000000
H      -1.155210000000000     -1.481240000000000      1.669180000000000
H      -1.150570000000000     -0.407870000000000      3.115160000000000
H      -2.560640000000000     -1.459690000000000      2.788020000000000
Na    -12.634029999999999     -4.902290000000000      0.689100000000000
C     -11.944020000000000     -4.266520000000000     -2.365930000000000
C     -11.304510000000001     -6.499950000000000     -2.041740000000000
O     -11.417120000000001     -5.215470000000000     -1.458940000000000
C     -13.466790000000000     -4.227660000000000     -2.286520000000000
C      -9.941670000000000     -6.687480000000000     -2.703580000000000
H     -11.554280000000000     -3.267360000000000     -2.077300000000000
H     -11.606470000000000     -4.438280000000000     -3.412820000000000
H     -11.406140000000001     -7.249630000000000     -1.228300000000000
H     -12.121290000000000     -6.716150000000000     -2.765800000000000
H      -9.127720000000000     -6.556190000000000     -1.960700000000000
H      -9.874120000000000     -7.712870000000000     -3.123690000000000
H      -9.801720000000000     -5.956540000000000     -3.526380000000000
H     -13.790550000000000     -3.982410000000000     -1.253430000000000
H     -13.854100000000001     -3.449910000000000     -2.976900000000000
H     -13.898420000000000     -5.206820000000000     -2.577770000000000
C     -14.811050000000000     -7.349980000000000     -0.112890000000000
C     -15.073950000000000     -6.649910000000000      2.150590000000000
O     -14.289370000000000     -6.602470000000000      0.971580000000000
C     -16.167300000000001     -6.849480000000000     -0.610980000000000
C     -15.178070000000000     -8.048330000000000      2.758780000000000
H     -14.096090000000000     -7.224080000000000     -0.952820000000000
H     -14.824240000000000     -8.437690000000000      0.104240000000000
H     -14.556039999999999     -6.012110000000000      2.898760000000000
H     -16.070640000000001     -6.184150000000000      2.005920000000000
H     -14.163539999999999     -8.472980000000000      2.910980000000000
H     -15.693530000000001     -7.983580000000000      3.739820000000000
H     -15.772990000000000     -8.721520000000000      2.109190000000000
H     -16.112349999999999     -5.765960000000000     -0.846780000000000
H     -16.444109999999998     -7.403140000000000     -1.531420000000000
H     -16.961349999999999     -7.030850000000000      0.141070000000000
Na     -9.285489999999999     -4.748690000000000     -0.464040000000000
C     -10.520099999999999     -3.598140000000000      2.410390000000000
C     -10.037620000000000     -5.886250000000000      2.504080000000000
O     -10.417230000000000     -4.802850000000000      1.679970000000000
C     -10.564710000000000     -2.434560000000000      1.428030000000000
C     -11.218050000000000     -6.436570000000000      3.301820000000000
H     -11.462790000000000     -3.586960000000000      2.998310000000000
H      -9.644119999999999     -3.434800000000000      3.077650000000000
H      -9.675090000000001     -6.695620000000000      1.834690000000000
H      -9.182000000000000     -5.632040000000000      3.168110000000000
H     -12.035410000000001     -6.737480000000000      2.614590000000000
H     -10.890630000000000     -7.327200000000000      3.877970000000000
H     -11.599119999999999     -5.679450000000000      4.017030000000000
H     -11.424280000000000     -2.550260000000000      0.733540000000000
H     -10.675599999999999     -1.477660000000000      1.980070000000000
H      -9.626799999999999     -2.398130000000000      0.835490000000000
C      -6.368400000000000     -3.307680000000000      0.180940000000000
C      -7.289430000000000     -2.352120000000000     -1.715560000000000
O      -7.503740000000000     -3.242170000000000     -0.647340000000000
C      -6.651160000000000     -4.305200000000000      1.296020000000000
C      -8.561090000000000     -2.302260000000000     -2.551900000000000
H      -5.480610000000000     -3.667360000000000     -0.386890000000000
H      -6.166630000000000     -2.318400000000000      0.648090000000000
H      -7.082800000000000     -1.324320000000000     -1.340630000000000
H      -6.460130000000000     -2.709120000000000     -2.366930000000000
H      -9.409509999999999     -1.948250000000000     -1.927900000000000
H      -8.429660000000000     -1.608530000000000     -3.408030000000000
H      -8.801250000000000     -3.315440000000000     -2.941300000000000
H      -6.862760000000000     -5.308430000000000      0.866940000000000
H      -5.777000000000000     -4.379020000000000      1.975450000000000
H      -7.533680000000000     -3.974650000000000      1.881970000000000
Mg    -12.437709999999999    -13.329650000000001     -3.805820000000000
H     -15.321540000000001    -13.851960000000000     -2.811170000000000
C     -15.429520000000000    -11.722440000000001     -3.293220000000000
C     -14.709080000000000    -12.930870000000001     -2.724110000000000
C     -16.707419999999999    -11.464969999999999     -2.499610000000000
H     -14.757949999999999    -10.838240000000001     -3.234440000000000
H     -15.669180000000001    -11.915850000000001     -4.361830000000000
H     -17.363019999999999    -12.361210000000000     -2.556910000000000
H     -16.446809999999999    -11.276460000000000     -1.435040000000000
C     -17.462759999999999    -10.262790000000001     -3.046390000000000
H     -14.394140000000000    -12.758730000000000     -1.673630000000000
H     -16.830050000000000     -9.352880000000001     -2.985790000000000
H     -17.751339999999999    -10.439360000000001     -4.104280000000000
H     -18.381180000000001    -10.105290000000000     -2.443600000000000
C     -11.425300000000000    -16.325900000000001     -3.594430000000000
C     -10.380450000000000    -16.993610000000000     -4.212680000000000
C      -9.760020000000001    -16.080390000000001     -5.051920000000000
C     -10.459270000000000    -14.901190000000000     -4.922460000000000
N     -11.452940000000000    -15.059630000000000     -4.034060000000000
C     -10.201470000000000    -13.582830000000000     -5.629120000000000
N     -11.289940000000000    -12.628310000000001     -5.329290000000000
C     -11.302030000000000    -11.272030000000001     -5.904660000000000
H     -10.099399999999999    -18.027249999999999     -4.066690000000000
H     -12.113890000000000    -16.742280000000001     -2.869190000000000
H      -8.904199999999999    -16.258450000000000     -5.689410000000000
H     -10.167270000000000    -13.773070000000001     -6.718950000000000
H      -9.224780000000001    -13.192819999999999     -5.276180000000000
C     -11.444440000000000    -11.357730000000000     -7.436230000000000
C     -12.515910000000000    -10.509150000000000     -5.343880000000000
C     -10.020070000000000    -10.508350000000000     -5.528480000000000
H     -12.376180000000000    -11.902770000000000     -7.704590000000000
H     -11.489640000000000    -10.342680000000000     -7.885190000000000
H     -10.584890000000000    -11.889519999999999     -7.891960000000000
H     -12.447609999999999    -10.418799999999999     -4.238710000000000
H     -12.566750000000001     -9.483400000000000     -5.772610000000000
H     -13.461860000000000    -11.035010000000000     -5.595680000000000
H      -9.917130000000000    -10.449000000000000     -4.423540000000000
H      -9.121610000000000    -11.008609999999999     -5.944210000000000
H     -10.048650000000000     -9.475239999999999     -5.937020000000000

-C 0
6-31g(d,p)
****
-H 0
6-31g(d,p)
****
-Mg 0
6-31g(d,p)
****
-N 0
6-31+g(d,p)
****
-Na 0
6-31g(d,p)
****
-O 0
6-31+g(d,p)
****


