%chk=lowest10_c1_a2_speciation7_speciationDFT36_speciationDFT37b_rank03_E205.58.chk
%nprocshared=20
%mem=40GB
#p opt=loose PM7/gen scf=xqc 

lowest10_c1_a2_speciation7_speciationDFT36_speciationDFT37b_rank03_E205.58 DFT input

0 1
Mg      0.072930000000000     -0.407290000000000     -0.313070000000000
C      -1.056080000000000      1.720290000000000     -2.402450000000000
C       0.958400000000000      0.718650000000000     -3.193410000000000
O       0.243620000000000      1.252020000000000     -2.099220000000000
C      -1.991020000000000      0.652940000000000     -2.970360000000000
C       1.397610000000000      1.803230000000000     -4.163220000000000
H      -1.493310000000000      2.037000000000000     -1.438550000000000
H      -1.032730000000000      2.638870000000000     -3.021470000000000
H       1.875030000000000      0.252780000000000     -2.769900000000000
H       0.420740000000000     -0.107250000000000     -3.702990000000000
H       1.910090000000000      2.614440000000000     -3.604420000000000
H       2.097990000000000      1.371690000000000     -4.907690000000000
H       0.517930000000000      2.214260000000000     -4.697820000000000
H      -1.922890000000000     -0.280240000000000     -2.376740000000000
H      -3.036310000000000      1.024840000000000     -2.932050000000000
H      -1.738810000000000      0.437800000000000     -4.027360000000000
H      -0.892970000000000     -2.734650000000000     -0.935720000000000
C       1.271530000000000     -2.986680000000000     -0.850490000000000
C       0.031440000000000     -2.232170000000000     -1.283630000000000
C       1.373170000000000     -3.026390000000000      0.678620000000000
H       1.202950000000000     -4.009760000000000     -1.269990000000000
H       2.175350000000000     -2.478580000000000     -1.255430000000000
H       1.548720000000000     -2.001280000000000      1.066590000000000
H       0.428680000000000     -3.407230000000000      1.121040000000000
C       2.511500000000000     -3.937320000000000      1.120840000000000
H       0.003330000000000     -2.096500000000000     -2.383210000000000
H       2.307630000000000     -4.973920000000000      0.776770000000000
H       3.478840000000000     -3.593950000000000      0.697260000000000
H       2.582450000000000     -3.939930000000000      2.228770000000000
C       2.554170000000000      0.103890000000000      2.555470000000000
C       2.827230000000000      0.480540000000000      1.259940000000000
C       1.747790000000000      1.219630000000000      0.810770000000000
C       0.837100000000000      1.270500000000000      1.790160000000000
N       1.303550000000000      0.606440000000000      2.942460000000000
C      -0.517410000000000      1.925730000000000      1.723130000000000
N      -1.434190000000000      1.181210000000000      0.841540000000000
C      -2.440850000000000      0.291650000000000      1.471780000000000
H       3.717000000000000      0.220350000000000      0.700890000000000
H       3.191360000000000     -0.499410000000000      3.185320000000000
H       1.658050000000000      1.655040000000000     -0.172590000000000
H      -0.399510000000000      2.958870000000000      1.331160000000000
H      -0.917890000000000      2.006550000000000      2.745150000000000
C      -3.418880000000000      1.104870000000000      2.342150000000000
C      -3.250620000000000     -0.371070000000000      0.338870000000000
C      -1.783250000000000     -0.827100000000000      2.308090000000000
H      -3.851250000000000      1.939460000000000      1.750550000000000
H      -4.247780000000000      0.457340000000000      2.700550000000000
H      -2.930560000000000      1.520400000000000      3.244120000000000
H      -2.596200000000000     -1.009080000000000     -0.289860000000000
H      -4.057940000000000     -1.020080000000000      0.744690000000000
H      -3.715490000000000      0.398380000000000     -0.314280000000000
H      -1.164270000000000     -1.491370000000000      1.668210000000000
H      -1.142000000000000     -0.409500000000000      3.107370000000000
H      -2.560780000000000     -1.453940000000000      2.797600000000000
Na     -2.635320000000000      7.213060000000000      6.448800000000000
C      -1.593800000000000      4.975460000000000      4.420490000000000
C      -0.373210000000000      4.656500000000000      6.397720000000000
O      -0.992670000000000      5.596130000000000      5.540240000000000
C      -3.036080000000000      4.584230000000000      4.725690000000000
C       1.083590000000000      4.426170000000000      6.003540000000000
H      -1.600680000000000      5.709680000000000      3.587370000000000
H      -1.014700000000000      4.099420000000000      4.053880000000000
H      -0.396980000000000      5.072380000000000      7.427670000000000
H      -0.921450000000000      3.689340000000000      6.441620000000000
H       1.652800000000000      5.377970000000000      6.045690000000000
H       1.546640000000000      3.707320000000000      6.711370000000000
H       1.151420000000000      4.008100000000000      4.978000000000000
H      -3.621840000000000      5.480550000000000      5.019110000000000
H      -3.497190000000000      4.134880000000000      3.821880000000000
H      -3.074360000000000      3.842330000000000      5.549050000000000
C      -3.755900000000000      4.963760000000000      8.678890000000001
C      -4.672700000000000      7.126760000000000      9.089720000000000
O      -3.723610000000000      6.348500000000000      8.381530000000000
C      -5.070520000000000      4.281260000000000      8.299340000000001
C      -4.458190000000000      7.124520000000000     10.603100000000000
H      -2.962140000000000      4.492240000000000      8.062180000000000
H      -3.472100000000000      4.761420000000000      9.731890000000000
H      -4.536620000000000      8.175580000000000      8.748300000000000
H      -5.714620000000000      6.859810000000000      8.817150000000000
H      -3.413080000000000      7.415490000000000     10.839510000000001
H      -5.151340000000000      7.853860000000000     11.072310000000000
H      -4.675910000000000      6.126380000000000     11.033930000000000
H      -5.309960000000000      4.478070000000000      7.233160000000000
H      -4.968580000000000      3.185780000000000      8.448969999999999
H      -5.902720000000000      4.632360000000000      8.942159999999999
Na      0.638490000000000      7.296190000000000      5.125930000000000
C      -1.432090000000000      9.850890000000000      5.609240000000000
C      -0.295590000000000      9.261620000000001      7.567300000000000
O      -0.813130000000000      8.808199999999999      6.332940000000000
C      -1.636440000000000      9.395170000000000      4.170060000000000
C      -1.385710000000000      9.405049999999999      8.628290000000000
H      -2.429840000000000     10.069690000000000      6.041560000000000
H      -0.807270000000000     10.771940000000001      5.580350000000000
H       0.422610000000000      8.491899999999999      7.922630000000000
H       0.290750000000000     10.200630000000000      7.458400000000000
H      -1.916880000000000      8.440350000000000      8.762359999999999
H      -0.922120000000000      9.693210000000001      9.595000000000001
H      -2.115480000000000     10.190590000000000      8.344370000000000
H      -2.257040000000000      8.473970000000000      4.142980000000000
H      -2.150660000000000     10.191070000000000      3.591170000000000
H      -0.657120000000000      9.183009999999999      3.692710000000000
C       2.783250000000000      9.281290000000000      3.563800000000000
C       2.009550000000000      7.671230000000000      2.089600000000000
O       1.872130000000000      8.225750000000000      3.375260000000000
C       2.603350000000000      9.815790000000000      4.978570000000000
C       0.979020000000000      6.559390000000000      1.940960000000000
H       3.833080000000000      8.924920000000000      3.461030000000000
H       2.575840000000000     10.111670000000000      2.852180000000000
H       1.808180000000000      8.434920000000000      1.304930000000000
H       3.021280000000000      7.225920000000000      1.957300000000000
H      -0.043850000000000      6.974150000000000      2.068220000000000
H       1.056970000000000      6.095900000000000      0.935640000000000
H       1.147110000000000      5.777360000000000      2.712970000000000
H       2.802120000000000      9.011160000000000      5.719150000000000
H       3.302180000000000     10.657719999999999      5.163110000000000
H       1.563100000000000     10.177149999999999      5.115520000000000
Mg     -5.397840000000000     14.186370000000000     10.647720000000000
C      -8.070150000000000     14.541530000000000      7.870730000000000
C      -6.276550000000000     15.869840000000000      7.290830000000000
O      -7.098820000000000     15.445710000000000      8.358370000000001
C      -9.200160000000000     14.419760000000000      8.881150000000000
C      -5.159010000000000     16.751380000000001      7.830020000000000
H      -8.529040000000000     14.894439999999999      6.919410000000000
H      -7.616970000000000     13.539140000000000      7.717260000000000
H      -5.814180000000000     15.002720000000000      6.770210000000000
H      -6.863570000000000     16.472870000000000      6.564360000000000
H      -4.536530000000000     16.187700000000000      8.554000000000000
H      -4.512440000000000     17.091120000000000      6.993370000000000
H      -5.588320000000000     17.640760000000000      8.336959999999999
H      -9.673370000000000     15.409390000000000      9.046939999999999
H      -9.962240000000000     13.702909999999999      8.510930000000000
H      -8.818690000000000     14.050430000000000      9.846030000000001
H      -5.015700000000000     17.466930000000001     10.864500000000000
C      -3.654990000000000     16.213450000000002     12.037680000000000
C      -5.041200000000000     16.569649999999999     11.514960000000000
C      -2.681940000000000     15.920500000000001     10.888809999999999
H      -3.284350000000000     17.068400000000000     12.640260000000000
H      -3.731280000000000     15.315680000000000     12.690480000000001
H      -3.021960000000000     15.029350000000001     10.317130000000001
H      -2.641750000000000     16.790740000000000     10.199260000000001
C      -1.275100000000000     15.661370000000000     11.420400000000001
H      -5.750630000000000     16.722490000000001     12.353980000000000
H      -0.909880000000000     16.552630000000001     11.974380000000000
H      -1.269260000000000     14.782200000000000     12.099159999999999
H      -0.584010000000000     15.464700000000001     10.573710000000000
C      -4.132410000000000     13.292770000000001      7.886500000000000
C      -4.350630000000000     12.177199999999999      7.096860000000000
C      -5.297500000000000     11.403470000000000      7.751830000000000
C      -5.635060000000000     12.089610000000000      8.897250000000000
N      -4.919240000000000     13.224019999999999      8.965529999999999
C      -6.628970000000000     11.697210000000000      9.975130000000000
N      -6.917180000000000     12.847939999999999     10.865589999999999
C      -7.507980000000000     12.605600000000001     12.195449999999999
H      -3.872800000000000     11.956530000000001      6.154460000000000
H      -3.446690000000000     14.105140000000000      7.671920000000000
H      -5.703970000000000     10.456329999999999      7.420570000000000
H      -7.580770000000000     11.390650000000001      9.493800000000000
H      -6.198810000000000     10.838329999999999     10.528510000000001
C      -6.468780000000000     11.992130000000000     13.148680000000001
C      -7.964790000000000     13.958440000000000     12.778960000000000
C      -8.741339999999999     11.687020000000000     12.076060000000000
H      -5.598310000000000     12.674270000000000     13.260080000000000
H      -6.917640000000000     11.830690000000001     14.153210000000000
H      -6.105970000000000     11.013240000000000     12.778540000000000
H      -8.723340000000000     14.442800000000000     12.128880000000001
H      -8.420930000000000     13.820959999999999     13.784190000000001
H      -7.105340000000000     14.653850000000000     12.881959999999999
H      -9.486710000000000     12.133110000000000     11.381760000000000
H      -8.458130000000001     10.686180000000000     11.689610000000000
H      -9.225759999999999     11.545870000000001     13.065590000000000

-C 0
6-31g(d,p)
****
-H 0
6-31g(d,p)
****
-Mg 0
6-31g(d,p)
****
-N 0
6-31+g(d,p)
****
-Na 0
6-31g(d,p)
****
-O 0
6-31+g(d,p)
****


