%chk=lowest10_c1_a2_speciation0_speciationDFT38_speciationDFT38_rank04_E179.85.chk
%nprocshared=20
%mem=40GB
#p opt=loose PM7/gen scf=xqc 

lowest10_c1_a2_speciation0_speciationDFT38_speciationDFT38_rank04_E179.85 DFT input

0 1
Mg     -0.095430000000000      0.823110000000000     -0.535090000000000
C      -1.690150000000000     -1.391270000000000      1.315110000000000
C      -1.225210000000000     -2.307980000000000     -0.845940000000000
O      -1.309550000000000     -1.159750000000000     -0.029840000000000
C      -0.917360000000000     -2.498190000000000      2.036030000000000
C      -2.585130000000000     -2.937850000000000     -1.105140000000000
H      -1.463820000000000     -0.453530000000000      1.859570000000000
H      -2.785700000000000     -1.541890000000000      1.395100000000000
H      -0.823240000000000     -1.975280000000000     -1.822060000000000
H      -0.480730000000000     -3.037560000000000     -0.470930000000000
H      -2.470140000000000     -3.754050000000000     -1.848070000000000
H      -3.286970000000000     -2.177610000000000     -1.506240000000000
H      -2.996220000000000     -3.359820000000000     -0.167380000000000
H       0.170290000000000     -2.343140000000000      1.940450000000000
H      -1.188820000000000     -3.495380000000000      1.635260000000000
H      -1.169110000000000     -2.475330000000000      3.114670000000000
H      -2.198360000000000      1.736910000000000     -1.899810000000000
C      -0.607240000000000      1.708520000000000     -3.409050000000000
C      -1.121860000000000      1.986890000000000     -1.986470000000000
C      -0.662890000000000      0.233540000000000     -3.854280000000000
H      -1.196080000000000      2.324320000000000     -4.120190000000000
H       0.455760000000000      2.027150000000000     -3.463930000000000
H      -0.268440000000000      0.167900000000000     -4.893500000000000
H       0.000510000000000     -0.378190000000000     -3.210310000000000
C      -2.072200000000000     -0.358400000000000     -3.851840000000000
H      -0.970820000000000      3.052630000000000     -1.728220000000000
H      -2.490810000000000     -0.361060000000000     -2.827170000000000
H      -2.741200000000000      0.222240000000000     -4.520050000000000
H      -2.036570000000000     -1.410190000000000     -4.211880000000000
C       2.272600000000000     -2.306060000000000     -0.890750000000000
C       2.419630000000000     -1.168550000000000     -1.648470000000000
C       2.315320000000000     -0.082140000000000     -0.796760000000000
C       2.084870000000000     -0.547710000000000      0.438360000000000
N       2.075130000000000     -1.952010000000000      0.454220000000000
C       1.820530000000000      0.300580000000000      1.656610000000000
N       0.624430000000000      1.116050000000000      1.419390000000000
C       0.245880000000000      2.146200000000000      2.418020000000000
H       2.565860000000000     -1.140970000000000     -2.721200000000000
H       2.287040000000000     -3.320840000000000     -1.258800000000000
H       2.356200000000000      0.958400000000000     -1.087010000000000
H       2.708620000000000      0.929140000000000      1.853180000000000
H       1.643140000000000     -0.377660000000000      2.518730000000000
C       1.294390000000000      3.275040000000000      2.460430000000000
C      -1.111110000000000      2.747320000000000      2.017330000000000
C       0.106890000000000      1.522230000000000      3.827550000000000
H       1.388260000000000      3.755990000000000      1.464580000000000
H       1.002620000000000      4.049930000000000      3.203310000000000
H       2.289540000000000      2.894950000000000      2.767290000000000
H      -1.902690000000000      1.968670000000000      2.011430000000000
H      -1.415310000000000      3.542670000000000      2.734880000000000
H      -1.052350000000000      3.197200000000000      1.004150000000000
H      -0.646360000000000      0.705820000000000      3.825430000000000
H       1.071940000000000      1.107710000000000      4.186190000000000
H      -0.217800000000000      2.286560000000000      4.567670000000000
Na      5.153300000000000    -11.663029999999999      1.944080000000000
C       4.630620000000000    -13.900660000000000      4.291550000000000
C       6.545430000000000    -12.700200000000001      4.735010000000000
O       5.853830000000000    -13.444220000000000      3.755170000000000
C       3.894110000000000    -14.710559999999999      3.234210000000000
C       7.855720000000000    -12.197070000000000      4.146900000000000
H       4.806290000000000    -14.566310000000000      5.167330000000000
H       3.979970000000000    -13.042790000000000      4.577270000000000
H       5.951930000000000    -11.812430000000001      5.049150000000000
H       6.789900000000000    -13.337690000000000      5.615060000000000
H       7.655840000000000    -11.545800000000000      3.269620000000000
H       8.409030000000000    -11.610469999999999      4.910650000000000
H       8.485049999999999    -13.054940000000000      3.827410000000000
H       4.506580000000000    -15.584899999999999      2.927140000000000
H       2.928990000000000    -15.075189999999999      3.645520000000000
H       3.689310000000000    -14.079470000000001      2.343410000000000
Na      7.296010000000000    -15.644370000000000      3.509710000000000
Mg      3.212210000000000     -7.308510000000000      6.607600000000000
C       1.855110000000000     -4.278790000000000      6.101140000000000
C       2.528900000000000     -5.226100000000000      4.012980000000000
O       2.592670000000000     -5.282490000000000      5.424110000000000
C       0.390530000000000     -4.152340000000000      5.675220000000000
C       3.205540000000000     -3.987910000000000      3.436510000000000
H       1.841430000000000     -4.574490000000000      7.169360000000000
H       2.378680000000000     -3.302080000000000      6.055790000000000
H       3.080380000000000     -6.108510000000000      3.633450000000000
H       1.495200000000000     -5.357390000000000      3.635930000000000
H       3.217430000000000     -4.064910000000000      2.329330000000000
H       4.250180000000000     -3.917510000000000      3.804530000000000
H       2.650680000000000     -3.071800000000000      3.720600000000000
H      -0.116650000000000     -5.132430000000000      5.734860000000000
H       0.312880000000000     -3.751280000000000      4.645600000000000
H      -0.132400000000000     -3.450410000000000      6.355690000000000
H       5.800300000000000     -6.557300000000000      6.605800000000000
C       5.812780000000000     -8.483370000000001      5.564820000000000
C       5.338060000000000     -7.561010000000000      6.698410000000000
C       5.399430000000000     -8.036899999999999      4.148890000000000
H       6.918630000000000     -8.572910000000000      5.612920000000000
H       5.371840000000000     -9.488519999999999      5.733110000000000
H       5.785140000000000     -8.787580000000000      3.422970000000000
H       4.293310000000000     -8.028910000000000      4.065510000000000
C       5.951880000000000     -6.669790000000000      3.745010000000000
H       5.615300000000000     -7.995720000000000      7.679330000000000
H       5.548050000000000     -5.874840000000000      4.402080000000000
H       7.060430000000000     -6.664860000000000      3.798310000000000
H       5.646960000000000     -6.439830000000000      2.700470000000000
C       0.504480000000000     -8.135910000000001      3.826420000000000
C       1.452310000000000     -9.047070000000000      4.233840000000000
C       1.489040000000000     -9.015810000000000      5.615660000000000
C       0.609820000000000     -8.102420000000000      6.036310000000000
N      -0.072060000000000     -7.519650000000000      4.948700000000000
C       0.391690000000000     -7.707720000000000      7.472010000000000
N       1.643770000000000     -7.156170000000000      8.008470000000001
C       1.724680000000000     -6.831270000000000      9.453110000000001
H       2.064860000000000     -9.656590000000000      3.582970000000000
H       0.244530000000000     -7.911560000000000      2.801250000000000
H       2.146870000000000     -9.596920000000001      6.248910000000000
H       0.067340000000000     -8.602890000000000      8.036899999999999
H      -0.403960000000000     -6.934300000000000      7.509260000000000
C       1.636240000000000     -8.109529999999999     10.310540000000000
C       3.072640000000000     -6.145320000000000      9.727910000000000
C       0.591660000000000     -5.860790000000000      9.862920000000001
H       2.450570000000000     -8.815099999999999     10.044050000000000
H       1.724380000000000     -7.859190000000000     11.390919999999999
H       0.662060000000000     -8.622370000000000     10.177270000000000
H       3.163090000000000     -5.204870000000000      9.144760000000000
H       3.169990000000000     -5.892040000000000     10.807650000000001
H       3.913870000000000     -6.814450000000000      9.450659999999999
H       0.636100000000000     -4.927820000000000      9.261770000000000
H      -0.408770000000000     -6.320910000000000      9.723850000000001
H       0.678860000000000     -5.583510000000000     10.936450000000001

-C 0
6-31g(d,p)
****
-H 0
6-31g(d,p)
****
-Mg 0
6-31g(d,p)
****
-N 0
6-31+g(d,p)
****
-Na 0
6-31g(d,p)
****
-O 0
6-31+g(d,p)
****


