%chk=lowest10_c1_a2_speciation0_speciationDFT1_speciationDFT1_rank01_E177.45.chk
%nprocshared=20
%mem=40GB
#p opt=loose PM7/gen scf=xqc 

lowest10_c1_a2_speciation0_speciationDFT1_speciationDFT1_rank01_E177.45 DFT input

0 1
Mg     -0.412240000000000      0.526390000000000     -0.411510000000000
H      -1.806150000000000     -0.298560000000000     -2.934320000000000
C       0.129130000000000     -1.284090000000000     -3.234270000000000
C      -0.722330000000000     -0.111650000000000     -2.790890000000000
C      -0.049680000000000     -1.495440000000000     -4.732390000000000
H       1.194860000000000     -1.069920000000000     -3.000110000000000
H      -0.182140000000000     -2.191590000000000     -2.671380000000000
H      -1.122070000000000     -1.695670000000000     -4.947170000000000
H       0.260090000000000     -0.572810000000000     -5.270450000000000
C       0.785720000000000     -2.665480000000000     -5.227990000000000
H      -0.400990000000000      0.839850000000000     -3.263860000000000
H       1.863410000000000     -2.475760000000000     -5.037330000000000
H       0.478960000000000     -3.600810000000000     -4.713520000000000
H       0.627930000000000     -2.785280000000000     -6.319670000000000
C      -2.862820000000000      2.062350000000000      0.892710000000000
C      -3.142640000000000      2.383360000000000      2.211650000000000
C      -2.100410000000000      1.882960000000000      2.976500000000000
C      -1.237820000000000      1.269670000000000      2.098720000000000
N      -1.704560000000000      1.387640000000000      0.846910000000000
C       0.067420000000000      0.568670000000000      2.422420000000000
N       0.590500000000000     -0.119940000000000      1.225220000000000
C       1.833090000000000     -0.910700000000000      1.290080000000000
H      -4.003680000000000      2.925020000000000      2.576740000000000
H      -3.467140000000000      2.313040000000000      0.028760000000000
H      -1.984480000000000      1.950360000000000      4.049410000000000
H      -0.124610000000000     -0.171980000000000      3.219790000000000
H       0.782250000000000      1.341720000000000      2.771380000000000
C       1.620360000000000     -2.128290000000000      2.208900000000000
C       2.178970000000000     -1.420510000000000     -0.121060000000000
C       3.001060000000000     -0.050880000000000      1.805090000000000
H       0.788880000000000     -2.756360000000000      1.821290000000000
H       2.539040000000000     -2.749540000000000      2.260970000000000
H       1.370080000000000     -1.816050000000000      3.242490000000000
H       2.356740000000000     -0.571680000000000     -0.815160000000000
H       3.100560000000000     -2.044730000000000     -0.095820000000000
H       1.354360000000000     -2.043520000000000     -0.528490000000000
H       3.148610000000000      0.832560000000000      1.147070000000000
H       2.810340000000000      0.301980000000000      2.839090000000000
H       3.941910000000000     -0.641890000000000      1.821330000000000
Na    -15.104110000000000     -0.407280000000000      6.585860000000000
C     -12.822190000000001     -1.992770000000000      4.844300000000000
C     -11.870050000000001     -0.986620000000000      6.684450000000000
O     -12.708110000000000     -0.785590000000000      5.566610000000000
C     -13.715479999999999     -1.767400000000000      3.632940000000000
C     -11.763479999999999      0.314050000000000      7.467730000000000
H     -11.827560000000000     -2.326930000000000      4.473740000000000
H     -13.291359999999999     -2.785370000000000      5.470570000000000
H     -12.296760000000001     -1.758110000000000      7.365440000000000
H     -10.843540000000001     -1.274940000000000      6.361690000000000
H     -12.768390000000000      0.632840000000000      7.817840000000000
H     -11.105990000000000      0.167700000000000      8.350830000000000
H     -11.331790000000000      1.112000000000000      6.826890000000000
H     -13.277060000000001     -0.987780000000000      2.974330000000000
H     -13.811030000000001     -2.711930000000000      3.056400000000000
H     -14.726279999999999     -1.441910000000000      3.958710000000000
Na    -11.265470000000001      0.759400000000000      3.991210000000000
Mg     -5.188020000000000     -1.947740000000000      4.348970000000000
H      -2.140160000000000     -2.321160000000000      4.010920000000000
C      -2.879100000000000     -4.230170000000000      3.241140000000000
C      -2.916720000000000     -3.082090000000000      4.232830000000000
C      -1.536200000000000     -4.947990000000000      3.338800000000000
H      -3.707590000000000     -4.935660000000000      3.469790000000000
H      -3.029570000000000     -3.826210000000000      2.216020000000000
H      -0.718980000000000     -4.227680000000000      3.121020000000000
H      -1.403180000000000     -5.340530000000000      4.370630000000000
C      -1.454860000000000     -6.104190000000000      2.353030000000000
H      -2.834460000000000     -3.445670000000000      5.278600000000000
H      -2.252190000000000     -6.847610000000000      2.566180000000000
H      -1.567230000000000     -5.730620000000000      1.313050000000000
H      -0.466040000000000     -6.597890000000000      2.453320000000000
C      -5.076700000000000      1.039930000000000      5.403900000000000
C      -6.026380000000000      2.048050000000000      5.418330000000000
C      -7.171790000000000      1.533040000000000      4.829580000000000
C      -6.867930000000000      0.239260000000000      4.467890000000000
N      -5.609530000000000     -0.049080000000000      4.827460000000000
C      -7.770140000000000     -0.768760000000000      3.777830000000000
N      -6.994280000000000     -1.975350000000000      3.419410000000000
C      -7.620460000000000     -3.108150000000000      2.715350000000000
H      -5.901460000000000      3.045690000000000      5.816600000000000
H      -4.068330000000000      1.100720000000000      5.793090000000000
H      -8.112060000000000      2.044080000000000      4.675160000000000
H      -8.173340000000000     -0.303090000000000      2.858700000000000
H      -8.595070000000000     -1.020820000000000      4.475370000000000
C      -8.069879999999999     -2.663390000000000      1.310740000000000
C      -6.578660000000000     -4.231040000000000      2.561090000000000
C      -8.819050000000001     -3.649630000000000      3.513250000000000
H      -7.199620000000000     -2.280940000000000      0.733230000000000
H      -8.515969999999999     -3.513750000000000      0.752280000000000
H      -8.832560000000001     -1.860640000000000      1.366920000000000
H      -6.233320000000000     -4.586930000000000      3.555150000000000
H      -7.014380000000000     -5.097630000000000      2.015250000000000
H      -5.695450000000000     -3.873280000000000      1.989610000000000
H      -8.495580000000000     -3.966700000000000      4.528020000000000
H      -9.607419999999999     -2.877520000000000      3.615240000000000
H      -9.269410000000001     -4.523530000000000      2.995190000000000

-C 0
6-31g(d,p)
****
-H 0
6-31g(d,p)
****
-Mg 0
6-31g(d,p)
****
-N 0
6-31+g(d,p)
****
-Na 0
6-31g(d,p)
****
-O 0
6-31+g(d,p)
****


