%chk=lowest10_c1_a2_speciation7_speciationDFT2_speciationDFT37b_rank01_E206.45.chk
%nprocshared=20
%mem=40GB
#p opt=loose PM7/gen scf=xqc 

lowest10_c1_a2_speciation7_speciationDFT2_speciationDFT37b_rank01_E206.45 DFT input

0 1
Mg      0.131140000000000     -0.538540000000000      0.136610000000000
C      -1.107930000000000     -0.965530000000000     -2.780330000000000
C       1.038760000000000     -1.986630000000000     -2.594570000000000
O       0.216430000000000     -0.879810000000000     -2.290100000000000
C      -1.895270000000000     -2.164890000000000     -2.253360000000000
C       1.412200000000000     -2.026840000000000     -4.067680000000000
H      -1.626550000000000     -0.063630000000000     -2.406890000000000
H      -1.148040000000000     -0.883660000000000     -3.884610000000000
H       1.976580000000000     -1.849380000000000     -2.013160000000000
H       0.617110000000000     -2.950470000000000     -2.242670000000000
H       1.817370000000000     -1.039690000000000     -4.374770000000000
H       2.184380000000000     -2.806650000000000     -4.231180000000000
H       0.522390000000000     -2.273930000000000     -4.680660000000000
H      -1.767700000000000     -2.261710000000000     -1.157040000000000
H      -2.973120000000000     -2.021300000000000     -2.476960000000000
H      -1.561790000000000     -3.098410000000000     -2.747820000000000
H      -0.550420000000000     -2.570140000000000      1.616030000000000
C       1.620250000000000     -2.427880000000000      1.752700000000000
C       0.330590000000000     -2.430780000000000      0.958010000000000
C       1.645920000000000     -1.249550000000000      2.732720000000000
H       1.684020000000000     -3.393920000000000      2.291850000000000
H       2.483990000000000     -2.333060000000000      1.057120000000000
H       1.687020000000000     -0.295370000000000      2.166380000000000
H       0.727430000000000     -1.243620000000000      3.356750000000000
C       2.853130000000000     -1.342030000000000      3.657100000000000
H       0.344740000000000     -3.208300000000000      0.168140000000000
H       2.783370000000000     -2.272100000000000      4.260890000000000
H       3.797200000000000     -1.353890000000000      3.072570000000000
H       2.865480000000000     -0.472160000000000      4.346790000000000
C       2.404510000000000      2.284160000000000      1.403480000000000
C       2.697950000000000      1.536820000000000      0.285370000000000
C       1.568100000000000      1.529720000000000     -0.512400000000000
C       0.611380000000000      2.229050000000000      0.108460000000000
N       1.089450000000000      2.764610000000000      1.321570000000000
C      -0.798580000000000      2.442660000000000     -0.375670000000000
N      -1.587910000000000      1.199610000000000     -0.308250000000000
C      -2.526840000000000      1.032670000000000      0.828950000000000
H       3.637180000000000      1.035710000000000      0.089290000000000
H       3.072560000000000      2.469550000000000      2.231930000000000
H       1.479040000000000      1.024860000000000     -1.462020000000000
H      -0.767110000000000      2.793290000000000     -1.429610000000000
H      -1.256410000000000      3.245260000000000      0.222670000000000
C      -3.629710000000000      2.108950000000000      0.789560000000000
C      -3.203700000000000     -0.344560000000000      0.678020000000000
C      -1.798330000000000      1.060400000000000      2.189640000000000
H      -4.121020000000000      2.114050000000000     -0.206560000000000
H      -4.399940000000000      1.902260000000000      1.563440000000000
H      -3.235810000000000      3.121660000000000      0.998900000000000
H      -2.454550000000000     -1.159600000000000      0.747030000000000
H      -3.955650000000000     -0.514650000000000      1.480210000000000
H      -3.716840000000000     -0.425500000000000     -0.304320000000000
H      -1.074200000000000      0.221940000000000      2.269580000000000
H      -1.253900000000000      2.012510000000000      2.337210000000000
H      -2.528400000000000      0.960340000000000      3.022720000000000
Na     -1.456280000000000      9.438140000000001     -2.622960000000000
C       0.004010000000000     10.631740000000001     -5.202500000000000
C      -0.495680000000000      8.406060000000000     -5.749700000000000
O      -0.129860000000000      9.307860000000000     -4.722550000000000
C      -1.324840000000000     11.376150000000001     -5.119170000000000
C       0.736900000000000      7.812480000000000     -6.427330000000000
H       0.738200000000000     11.155600000000000     -4.554510000000000
H       0.418050000000000     10.675269999999999     -6.235080000000000
H      -1.072470000000000      7.579040000000000     -5.283340000000000
H      -1.170660000000000      8.866650000000000     -6.504950000000000
H       1.367880000000000      7.277570000000000     -5.687650000000000
H       0.416530000000000      7.088570000000000     -7.205460000000000
H       1.340530000000000      8.608449999999999     -6.909950000000000
H      -1.691810000000000     11.389620000000001     -4.071570000000000
H      -1.185970000000000     12.422180000000001     -5.463070000000000
H      -2.085850000000000     10.889480000000001     -5.762620000000000
C      -4.303680000000000      8.779980000000000     -4.302650000000000
C      -4.646330000000000      8.724309999999999     -1.944430000000000
O      -3.717310000000000      8.775050000000000     -3.013140000000000
C      -5.173640000000000     10.006580000000000     -4.580280000000000
C      -5.476080000000000      7.440580000000000     -1.916120000000000
H      -3.464350000000000      8.812720000000001     -5.028550000000000
H      -4.841370000000000      7.833250000000000     -4.514620000000000
H      -4.048760000000000      8.740769999999999     -1.007800000000000
H      -5.283010000000000      9.632250000000001     -1.904080000000000
H      -4.807050000000000      6.554590000000000     -1.934120000000000
H      -6.082130000000000      7.416600000000000     -0.986380000000000
H      -6.175760000000000      7.399620000000000     -2.775110000000000
H      -4.597320000000000     10.935940000000000     -4.387870000000000
H      -5.492250000000000      9.993630000000000     -5.643780000000000
H      -6.089420000000000      9.996790000000001     -3.955520000000000
Na      1.755590000000000      8.317620000000000     -3.620150000000000
C       0.651620000000000      8.895500000000000     -0.529440000000000
C       0.032560000000000      6.777600000000000     -1.311670000000000
O       0.339900000000000      8.111870000000000     -1.662860000000000
C       1.316660000000000     10.185330000000000     -0.994510000000000
C      -1.395670000000000      6.641030000000000     -0.788380000000000
H      -0.277870000000000      9.166610000000000      0.015540000000000
H       1.366040000000000      8.381830000000001      0.152400000000000
H       0.113020000000000      6.168210000000000     -2.237340000000000
H       0.769650000000000      6.347800000000000     -0.597710000000000
H      -2.115640000000000      7.022510000000000     -1.541280000000000
H      -1.617410000000000      5.571390000000000     -0.594960000000000
H      -1.524130000000000      7.200830000000000      0.160280000000000
H       0.642870000000000     10.740980000000000     -1.681460000000000
H       1.546180000000000     10.828490000000000     -0.119460000000000
H       2.263600000000000      9.957079999999999     -1.526750000000000
C       4.829570000000000      7.853570000000000     -2.467240000000000
C       4.806700000000000      9.703760000000001     -3.858900000000000
O       4.021020000000000      8.734059999999999     -3.209460000000000
C       3.926370000000000      6.814470000000000     -1.816110000000000
C       3.873990000000000     10.638470000000000     -4.617420000000000
H       5.548450000000000      7.319170000000000     -3.128610000000000
H       5.366230000000000      8.399509999999999     -1.659210000000000
H       5.377330000000000     10.311190000000000     -3.120770000000000
H       5.493670000000000      9.228050000000000     -4.594660000000000
H       3.173990000000000     11.130140000000001     -3.908370000000000
H       4.460180000000000     11.419520000000000     -5.144590000000000
H       3.283510000000000     10.064290000000000     -5.364040000000000
H       3.371720000000000      6.248280000000000     -2.595300000000000
H       4.529970000000000      6.104290000000000     -1.213950000000000
H       3.193790000000000      7.316120000000000     -1.150490000000000
Mg     -1.551760000000000     16.875589999999999     -1.371200000000000
H      -2.763120000000000     18.001040000000000     -3.968890000000000
C      -0.723210000000000     18.800500000000000     -4.091410000000000
C      -2.001790000000000     18.487040000000000     -3.325620000000000
C       0.014050000000000     17.547180000000001     -4.591050000000000
H      -0.972370000000000     19.465350000000001     -4.944580000000000
H      -0.036750000000000     19.346319999999999     -3.408340000000000
H       0.923820000000000     17.884679999999999     -5.133840000000000
H       0.337800000000000     16.925470000000001     -3.729520000000000
C      -0.818730000000000     16.682440000000000     -5.536420000000000
H      -2.431110000000000     19.406890000000001     -2.878700000000000
H      -1.688300000000000     16.243860000000002     -5.004340000000000
H      -1.173950000000000     17.282520000000002     -6.400080000000000
H      -0.195200000000000     15.844390000000001     -5.913890000000000
C       1.474070000000000     15.947179999999999     -1.153270000000000
C       2.069690000000000     14.874760000000000     -0.505730000000000
C       1.047770000000000     14.158590000000000      0.097540000000000
C      -0.123180000000000     14.805230000000000     -0.220300000000000
N       0.152970000000000     15.894390000000000     -0.966340000000000
C      -1.536030000000000     14.433650000000000      0.175100000000000
N      -2.503170000000000     15.256940000000000     -0.580590000000000
C      -3.954640000000000     15.091820000000000     -0.392200000000000
H       3.123940000000000     14.644869999999999     -0.472660000000000
H       1.987810000000000     16.716830000000002     -1.720530000000000
H       1.146670000000000     13.258550000000000      0.693040000000000
H      -1.636570000000000     14.596980000000000      1.268910000000000
H      -1.697050000000000     13.365170000000001     -0.067730000000000
C      -4.349520000000000     15.300599999999999      1.081200000000000
C      -4.682260000000000     16.138390000000001     -1.255750000000000
C      -4.380660000000000     13.687360000000000     -0.863790000000000
H      -4.044010000000000     16.312169999999998      1.424360000000000
H      -5.449770000000000     15.202240000000000      1.205320000000000
H      -3.871680000000000     14.542130000000000      1.734510000000000
H      -4.413860000000000     16.020689999999998     -2.327930000000000
H      -5.785390000000000     16.027159999999999     -1.160000000000000
H      -4.409130000000000     17.168170000000000     -0.939970000000000
H      -4.099340000000000     13.539560000000000     -1.929800000000000
H      -3.893540000000000     12.894019999999999     -0.261340000000000
H      -5.479400000000000     13.555130000000000     -0.768880000000000

-C 0
6-31g(d,p)
****
-H 0
6-31g(d,p)
****
-Mg 0
6-31g(d,p)
****
-N 0
6-31+g(d,p)
****
-Na 0
6-31g(d,p)
****
-O 0
6-31+g(d,p)
****


