%chk=lowest10_c1_a2_speciation0_speciationDFT0_speciationDFT1_rank06_E178.62.chk
%nprocshared=20
%mem=40GB
#p opt=loose PM7/gen scf=xqc 

lowest10_c1_a2_speciation0_speciationDFT0_speciationDFT1_rank06_E178.62 DFT input

0 1
Mg      0.340070000000000     -0.666670000000000      0.207050000000000
H       0.244420000000000     -1.373120000000000      3.120200000000000
C       0.732100000000000      0.759700000000000      3.264080000000000
C       0.880920000000000     -0.608500000000000      2.629840000000000
C       1.213030000000000      0.697290000000000      4.708290000000000
H       1.334450000000000      1.496060000000000      2.688350000000000
H      -0.336660000000000      1.065040000000000      3.220720000000000
H       0.605230000000000     -0.050750000000000      5.261270000000000
H       2.279170000000000      0.381390000000000      4.724970000000000
C       1.082960000000000      2.048640000000000      5.392820000000000
H       1.942260000000000     -0.928860000000000      2.573230000000000
H       1.695870000000000      2.808160000000000      4.862370000000000
H       0.020720000000000      2.372980000000000      5.401720000000000
H       1.442680000000000      1.959600000000000      6.438690000000000
C      -0.519810000000000     -3.511930000000000     -0.901490000000000
C      -1.080740000000000     -3.889680000000000     -2.111160000000000
C      -1.245020000000000     -2.732490000000000     -2.856560000000000
C      -0.790830000000000     -1.699950000000000     -2.070640000000000
N      -0.352650000000000     -2.181280000000000     -0.897820000000000
C      -0.742880000000000     -0.224950000000000     -2.419040000000000
N      -0.366990000000000      0.570090000000000     -1.232720000000000
C      -0.289330000000000      2.040600000000000     -1.301470000000000
H      -1.336960000000000     -4.893260000000000     -2.419560000000000
H      -0.249990000000000     -4.171820000000000     -0.085270000000000
H      -1.654680000000000     -2.648190000000000     -3.853810000000000
H      -1.745670000000000      0.082880000000000     -2.766820000000000
H       0.006040000000000     -0.098550000000000     -3.227320000000000
C      -1.693820000000000      2.618960000000000     -1.557850000000000
C       0.221230000000000      2.580410000000000      0.047060000000000
C       0.680590000000000      2.484270000000000     -2.410990000000000
H      -2.388790000000000      2.311660000000000     -0.745550000000000
H      -1.662960000000000      3.728110000000000     -1.596930000000000
H      -2.106710000000000      2.263020000000000     -2.522850000000000
H       1.241750000000000      2.199150000000000      0.264100000000000
H       0.264170000000000      3.692810000000000      0.031380000000000
H      -0.453530000000000      2.275140000000000      0.875080000000000
H       1.691670000000000      2.059170000000000     -2.231580000000000
H       0.325030000000000      2.151260000000000     -3.407400000000000
H       0.761080000000000      3.592180000000000     -2.437540000000000
Na     -1.317680000000000      0.046730000000000     12.025960000000000
C      -3.411850000000000      0.806150000000000     14.400390000000000
C      -4.015580000000000     -1.181960000000000     13.404750000000000
O      -3.656740000000000      0.162630000000000     13.168049999999999
C      -3.031730000000000      2.256930000000000     14.139390000000001
C      -4.264680000000000     -1.874270000000000     12.072210000000000
H      -4.326260000000000      0.804260000000000     15.036540000000000
H      -2.562660000000000      0.323720000000000     14.935900000000000
H      -3.192660000000000     -1.727220000000000     13.920870000000001
H      -4.955920000000000     -1.239760000000000     13.999140000000001
H      -3.344520000000000     -1.850260000000000     11.450340000000001
H      -4.551390000000000     -2.932940000000000     12.247210000000001
H      -5.087240000000000     -1.365360000000000     11.525750000000000
H      -3.858570000000000      2.780590000000000     13.614100000000001
H      -2.835750000000000      2.772910000000000     15.103300000000001
H      -2.115260000000000      2.305690000000000     13.513730000000001
Na     -5.893810000000000      1.270550000000000     12.318300000000001
Mg     -0.301310000000000     -3.669920000000000      8.659850000000000
H      -1.246550000000000     -5.716960000000000      6.451570000000000
C       0.918540000000000     -5.809130000000000      6.127640000000000
C      -0.352280000000000     -5.063050000000000      6.498970000000000
C       1.190510000000000     -7.015610000000000      7.036960000000000
H       0.811930000000000     -6.163390000000000      5.081170000000000
H       1.780880000000000     -5.110530000000000      6.174350000000000
H       0.338340000000000     -7.728180000000000      6.991060000000000
H       2.096150000000000     -7.528720000000000      6.650220000000000
C       1.453710000000000     -6.631750000000000      8.494680000000001
H      -0.489990000000000     -4.179340000000000      5.839180000000000
H       0.547790000000000     -6.193340000000000      8.959660000000000
H       1.732190000000000     -7.542990000000000      9.066940000000001
H       2.292070000000000     -5.905940000000000      8.563290000000000
C      -1.598680000000000     -5.183770000000000     11.134270000000001
C      -1.442170000000000     -5.017130000000000     12.500660000000000
C      -0.523850000000000     -3.993830000000000     12.680389999999999
C      -0.144350000000000     -3.594880000000000     11.417940000000000
N      -0.808550000000000     -4.305740000000000     10.496380000000000
C       0.854980000000000     -2.516440000000000     11.044549999999999
N       1.146950000000000     -2.587920000000000      9.597130000000000
C       2.124950000000000     -1.678400000000000      8.973990000000001
H      -1.942360000000000     -5.575560000000000     13.280110000000001
H      -2.248990000000000     -5.896860000000000     10.644159999999999
H      -0.164490000000000     -3.597810000000000     13.620300000000000
H       0.416940000000000     -1.535190000000000     11.316020000000000
H       1.785630000000000     -2.690780000000000     11.616170000000000
C       3.530130000000000     -1.960800000000000      9.541169999999999
C       2.149550000000000     -1.948510000000000      7.459060000000000
C       1.739750000000000     -0.207640000000000      9.212240000000000
H       3.808690000000000     -3.022940000000000      9.362800000000000
H       4.289810000000000     -1.312120000000000      9.055520000000000
H       3.573430000000000     -1.767450000000000     10.632009999999999
H       1.153400000000000     -1.754080000000000      7.008580000000000
H       2.894730000000000     -1.292830000000000      6.955530000000000
H       2.424790000000000     -3.004500000000000      7.253690000000000
H       0.727770000000000     -0.001410000000000      8.802820000000001
H       1.743780000000000      0.034690000000000     10.294910000000000
H       2.467600000000000      0.469310000000000      8.714680000000000

-C 0
6-31g(d,p)
****
-H 0
6-31g(d,p)
****
-Mg 0
6-31g(d,p)
****
-N 0
6-31+g(d,p)
****
-Na 0
6-31g(d,p)
****
-O 0
6-31+g(d,p)
****


