%chk=lowest10_c1_a2_speciation7_speciationDFT37b_speciationDFT37b_rank02_E187.23.chk
%nprocshared=20
%mem=40GB
#p opt=loose PM7/gen scf=xqc 

lowest10_c1_a2_speciation7_speciationDFT37b_speciationDFT37b_rank02_E187.23 DFT input

0 1
Mg     -0.354570000000000      0.152530000000000     -0.314610000000000
C       2.056840000000000      0.064200000000000     -2.405980000000000
C       0.182440000000000     -1.180810000000000     -3.195180000000000
O       1.001960000000000     -0.827640000000000     -2.101110000000000
C       1.598590000000000      1.407610000000000     -2.972760000000000
C       0.901380000000000     -2.103870000000000     -4.165500000000000
H       2.551990000000000      0.284710000000000     -1.442920000000000
H       2.839020000000000     -0.414750000000000     -3.027650000000000
H      -0.679370000000000     -1.741720000000000     -2.771910000000000
H      -0.264170000000000     -0.302430000000000     -3.704820000000000
H       1.343840000000000     -2.955990000000000     -3.607770000000000
H       0.177450000000000     -2.490840000000000     -4.911980000000000
H       1.699840000000000     -1.549570000000000     -4.698210000000000
H       0.760570000000000      1.816580000000000     -2.374290000000000
H       2.444660000000000      2.125610000000000     -2.940450000000000
H       1.279590000000000      1.296830000000000     -4.027800000000000
H      -1.891990000000000      2.154320000000000     -0.937700000000000
C      -3.189340000000000      0.404250000000000     -0.851300000000000
C      -1.916760000000000      1.102180000000000     -1.285110000000000
C      -3.272880000000000      0.336560000000000      0.677900000000000
H      -4.042440000000000      0.973660000000000     -1.270430000000000
H      -3.199970000000000     -0.632610000000000     -1.255960000000000
H      -2.470440000000000     -0.325540000000000      1.065470000000000
H      -3.133300000000000      1.345740000000000      1.119490000000000
C      -4.628720000000000     -0.197760000000000      1.121700000000000
H      -1.786550000000000      1.059000000000000     -2.384950000000000
H      -5.426940000000000      0.494400000000000      0.777820000000000
H      -4.812060000000000     -1.208020000000000      0.698820000000000
H      -4.664910000000000     -0.257310000000000      2.229730000000000
C      -1.153780000000000     -2.257850000000000      2.558540000000000
C      -0.959660000000000     -2.680170000000000      1.265160000000000
C       0.219230000000000     -2.113530000000000      0.813220000000000
C       0.714020000000000     -1.349930000000000      1.799020000000000
N      -0.091360000000000     -1.421730000000000      2.945790000000000
C       1.962010000000000     -0.504820000000000      1.727540000000000
N       1.778130000000000      0.659080000000000      0.845140000000000
C       1.510290000000000      1.977160000000000      1.473330000000000
H      -1.628030000000000     -3.323570000000000      0.703990000000000
H      -1.993230000000000     -2.508820000000000      3.186880000000000
H       0.642310000000000     -2.252090000000000     -0.166480000000000
H       2.795380000000000     -1.126230000000000      1.336620000000000
H       2.234990000000000     -0.200000000000000      2.751170000000000
C       2.703610000000000      2.419500000000000      2.342530000000000
C       1.341010000000000      3.008740000000000      0.340060000000000
C       0.212790000000000      1.966140000000000      2.309650000000000
H       3.641790000000000      2.380060000000000      1.749340000000000
H       2.555290000000000      3.460470000000000      2.702260000000000
H       2.822660000000000      1.788230000000000      3.243470000000000
H       0.462090000000000      2.759960000000000     -0.289250000000000
H       1.181140000000000      4.032220000000000      0.745950000000000
H       2.240670000000000      3.028310000000000     -0.312050000000000
H      -0.670590000000000      1.756250000000000      1.669880000000000
H       0.255920000000000      1.205920000000000      3.112720000000000
H       0.055300000000000      2.954970000000000      2.793990000000000
Na     -1.761270000000000     -2.420380000000000      9.469379999999999
C      -0.300480000000000     -1.227910000000000      6.886680000000000
C      -0.800480000000000     -3.453340000000000      6.341610000000000
O      -0.433600000000000     -2.551340000000000      7.367860000000000
C      -1.629980000000000     -0.484940000000000      6.968250000000000
C       0.431310000000000     -4.045110000000000      5.661320000000000
H       0.432680000000000     -0.703100000000000      7.534980000000000
H       0.114480000000000     -1.184520000000000      5.854790000000000
H      -1.376000000000000     -4.280780000000000      6.808640000000000
H      -1.477810000000000     -2.993340000000000      5.589430000000000
H       1.063190000000000     -4.579960000000000      6.400450000000000
H       0.110260000000000     -4.768370000000000      4.882980000000000
H       1.034000000000000     -3.248560000000000      5.178560000000000
H      -1.997480000000000     -0.471770000000000      8.015760000000000
H      -1.491500000000000      0.560980000000000      6.624300000000000
H      -2.390290000000000     -0.972060000000000      6.324390000000000
C      -4.609310000000000     -3.080190000000000      7.792080000000000
C      -4.951780000000000     -3.134560000000000     10.151170000000000
O      -4.023100000000000     -3.084030000000000      9.081899999999999
C      -5.479170000000000     -1.853900000000000      7.512870000000000
C      -5.781400000000000     -4.418090000000000     10.180320000000000
H      -3.769910000000000     -3.047920000000000      7.066110000000000
H      -5.147080000000000     -4.026970000000000      7.580720000000000
H      -4.354210000000000     -3.117650000000000     11.088010000000001
H      -5.588960000000000     -2.227070000000000     10.191030000000000
H      -5.112340000000000     -5.303980000000000     10.162319999999999
H      -6.386980000000000     -4.441470000000000     11.110429999999999
H      -6.481180000000000     -4.459350000000000      9.321350000000001
H      -4.902700000000000     -0.924420000000000      7.703970000000000
H      -5.797680000000000     -1.867720000000000      6.449300000000000
H      -6.394900000000000     -1.862850000000000      8.137729999999999
Na      1.449910000000000     -3.542320000000000      8.472830000000000
C       0.345210000000000     -2.963690000000000     11.565670000000001
C      -0.273900000000000     -5.080140000000000     10.782050000000000
O       0.033740000000000     -3.746220000000000     10.431530000000000
C       1.011260000000000     -1.675010000000000     11.100230000000000
C      -1.702600000000000     -5.216560000000000     11.303839999999999
H      -0.584440000000000     -2.692310000000000     12.110450000000000
H       1.059100000000000     -3.477630000000000     12.247940000000000
H      -0.192000000000000     -5.689580000000000      9.856560000000000
H       0.462470000000000     -5.509170000000000     11.497150000000000
H      -2.422090000000000     -4.837320000000000     10.549410000000000
H      -1.922970000000000     -6.286430000000000     11.501640000000000
H      -1.832210000000000     -4.652870000000000     12.249040000000001
H       0.338250000000000     -1.121360000000000     10.410959999999999
H       1.239260000000000     -1.029910000000000     11.974589999999999
H       1.958660000000000     -1.904410000000000     10.569160000000000
C       4.524550000000000     -4.004340000000000      9.625209999999999
C       4.501570000000000     -2.154760000000000      8.232900000000001
O       3.715880000000000     -3.124220000000000      8.882669999999999
C       3.621490000000000     -5.043210000000000     10.276590000000001
C       3.568920000000000     -1.220400000000000      7.473750000000000
H       5.243450000000000     -4.538980000000000      8.964060000000000
H       5.061140000000000     -3.458220000000000     10.433180000000000
H       5.072050000000000     -1.547090000000000      8.970990000000000
H       5.188740000000000     -2.630740000000000      7.497540000000000
H       2.868800000000000     -0.728730000000000      8.182670000000000
H       4.155130000000000     -0.439350000000000      6.946610000000000
H       2.978540000000000     -1.794650000000000      6.727100000000000
H       3.066850000000000     -5.609500000000000      9.497460000000000
H       4.225280000000000     -5.753200000000000     10.878750000000000
H       2.888910000000000     -4.541510000000000     10.942230000000000
Mg     -2.457890000000000     -2.526170000000000     18.345089999999999
C      -3.786540000000000     -4.582040000000000     16.244840000000000
C      -3.938450000000000     -2.333240000000000     15.472650000000000
O      -4.038590000000000     -3.225700000000000     16.564450000000001
C      -2.384340000000000     -4.846300000000000     15.694509999999999
C      -5.096790000000000     -2.486420000000000     14.496280000000000
H      -3.859050000000000     -5.139870000000000     17.199040000000000
H      -4.577490000000000     -5.007450000000000     15.595490000000000
H      -3.991430000000000     -1.307040000000000     15.896649999999999
H      -2.954520000000000     -2.382850000000000     14.963960000000000
H      -6.059250000000000     -2.404090000000000     15.043960000000000
H      -5.041960000000000     -1.683450000000000     13.732350000000000
H      -5.043380000000000     -3.465110000000000     13.978719999999999
H      -1.620340000000000     -4.369390000000000     16.338640000000002
H      -2.201510000000000     -5.940780000000000     15.667310000000001
H      -2.285070000000000     -4.460330000000000     14.662039999999999
H       0.079140000000000     -2.150600000000000     17.732360000000000
C      -0.812870000000000     -0.167570000000000     17.829920000000001
C      -0.831080000000000     -1.617900000000000     17.388620000000000
C      -0.830630000000000     -0.075800000000000     19.359410000000000
H       0.100450000000000      0.305920000000000     17.415099999999999
H      -1.711730000000000      0.351050000000000     17.428410000000000
H      -1.793150000000000     -0.476030000000000     19.744540000000001
H      -0.003330000000000     -0.678160000000000     19.791499999999999
C      -0.665880000000000      1.367290000000000     19.818269999999998
H      -0.922690000000000     -1.699060000000000     16.286269999999998
H       0.317700000000000      1.754750000000000     19.476420000000001
H      -1.475640000000000      2.005410000000000     19.405590000000000
H      -0.699490000000000      1.412920000000000     20.927009999999999
C      -4.207150000000000     -0.613880000000000     21.273530000000001
C      -4.663660000000000     -0.587010000000000     19.975400000000000
C      -4.737640000000000     -1.896970000000000     19.536510000000000
C      -4.325410000000000     -2.693970000000000     20.527600000000000
N      -3.994880000000000     -1.942730000000000     21.673249999999999
C      -4.225410000000000     -4.195690000000000     20.474460000000001
N      -3.151230000000000     -4.636180000000000     19.566210000000002
C      -1.868050000000000     -5.058570000000000     20.182030000000001
H      -4.906040000000000      0.303450000000000     19.409469999999999
H      -4.029680000000000      0.249700000000000     21.898219999999998
H      -5.066160000000000     -2.213100000000000     18.558869999999999
H      -5.193470000000000     -4.602370000000000     20.112179999999999
H      -4.077200000000000     -4.575130000000000     21.498919999999998
C      -2.064020000000000     -6.321170000000000     21.046910000000000
C      -0.892910000000000     -5.416960000000000     19.044020000000000
C      -1.230620000000000     -3.926190000000000     21.014779999999998
H      -2.541000000000000     -7.124640000000000     20.445930000000001
H      -1.084540000000000     -6.692380000000000     21.417990000000000
H      -2.688700000000000     -6.130430000000000     21.939990000000002
H      -0.682670000000000     -4.529530000000000     18.413620000000002
H       0.079380000000000     -5.775470000000000     19.449339999999999
H      -1.316270000000000     -6.216540000000000     18.398510000000002
H      -1.024220000000000     -3.038900000000000     20.379249999999999
H      -1.887760000000000     -3.617420000000000     21.850480000000001
H      -0.266230000000000     -4.263520000000000     21.453690000000002

-C 0
6-31g(d,p)
****
-H 0
6-31g(d,p)
****
-Mg 0
6-31g(d,p)
****
-N 0
6-31+g(d,p)
****
-Na 0
6-31g(d,p)
****
-O 0
6-31+g(d,p)
****


