%chk=lowest10_c1_a2_speciation0_speciationDFT2_speciationDFT96_rank03_E186.71.chk
%nprocshared=20
%mem=40GB
#p opt=loose PM7/gen scf=xqc 

lowest10_c1_a2_speciation0_speciationDFT2_speciationDFT96_rank03_E186.71 DFT input

0 1
Mg     -0.162830000000000     -0.204880000000000     -0.382900000000000
C       3.270620000000000     -0.140800000000000     -1.011460000000000
C       2.308860000000000      2.017200000000000     -0.671020000000000
O       2.176490000000000      0.615700000000000     -0.527590000000000
C       4.560280000000000      0.078670000000000     -0.227420000000000
C       2.376750000000000      2.480000000000000     -2.123960000000000
H       2.988310000000000     -1.208870000000000     -0.888760000000000
H       3.434130000000000      0.002990000000000     -2.096360000000000
H       1.387770000000000      2.463210000000000     -0.246180000000000
H       3.137770000000000      2.422410000000000     -0.056160000000000
H       1.529530000000000      2.055600000000000     -2.701400000000000
H       2.311960000000000      3.587590000000000     -2.155410000000000
H       3.335860000000000      2.178790000000000     -2.588920000000000
H       4.391360000000000     -0.086300000000000      0.855650000000000
H       5.325130000000000     -0.642780000000000     -0.584080000000000
H       4.947630000000000      1.103130000000000     -0.393050000000000
H       0.718990000000000     -2.406370000000000     -2.149930000000000
C       0.632430000000000     -0.793000000000000     -3.637770000000000
C       0.090830000000000     -1.538270000000000     -2.437700000000000
C       0.621440000000000     -1.711440000000000     -4.846970000000000
H       0.005520000000000      0.101150000000000     -3.833640000000000
H       1.665050000000000     -0.455530000000000     -3.423740000000000
H       1.249720000000000     -2.603330000000000     -4.632420000000000
H      -0.422320000000000     -2.040070000000000     -5.043600000000000
C       1.164800000000000     -0.995210000000000     -6.072690000000000
H      -0.976590000000000     -1.814900000000000     -2.561760000000000
H       0.540340000000000     -0.106070000000000     -6.304650000000000
H       2.212390000000000     -0.671270000000000     -5.893540000000000
H       1.142190000000000     -1.690090000000000     -6.936210000000000
C      -1.885270000000000     -0.886620000000000      4.115930000000000
C      -3.126780000000000     -0.467940000000000      3.690080000000000
C      -2.914280000000000      0.544850000000000      2.767350000000000
C      -1.596070000000000      0.684580000000000      2.653120000000000
N      -0.966210000000000     -0.217730000000000      3.524490000000000
C      -0.812250000000000      1.673300000000000      1.811520000000000
N      -0.895660000000000      1.508280000000000      0.348920000000000
C      -2.012950000000000      1.971220000000000     -0.485990000000000
H      -4.079660000000000     -0.853140000000000      4.030910000000000
H      -1.677270000000000     -1.660660000000000      4.840490000000000
H      -3.684540000000000      1.104620000000000      2.267430000000000
H       0.257590000000000      1.515490000000000      2.067950000000000
H      -1.047510000000000      2.708780000000000      2.105730000000000
C      -2.689010000000000      3.200810000000000      0.125560000000000
C      -1.426980000000000      2.366480000000000     -1.856270000000000
C      -3.015160000000000      0.823930000000000     -0.728500000000000
H      -1.930330000000000      3.999840000000000      0.276190000000000
H      -3.484310000000000      3.580950000000000     -0.545820000000000
H      -3.143730000000000      2.954470000000000      1.102340000000000
H      -0.912140000000000      1.502380000000000     -2.322120000000000
H      -2.225070000000000      2.702980000000000     -2.552730000000000
H      -0.681630000000000      3.183100000000000     -1.750370000000000
H      -2.531890000000000     -0.020850000000000     -1.268270000000000
H      -3.421740000000000      0.415710000000000      0.206940000000000
H      -3.866190000000000      1.179190000000000     -1.347790000000000
C      -0.039020000000000     -2.674560000000000      1.580520000000000
C       1.746960000000000     -1.227850000000000      2.112820000000000
O       0.853820000000000     -1.681540000000000      1.115640000000000
C      -1.411410000000000     -2.490020000000000      0.928820000000000
C       2.862870000000000     -2.227090000000000      2.341690000000000
H       0.357660000000000     -3.667010000000000      1.286880000000000
H      -0.184700000000000     -2.654370000000000      2.681950000000000
H       2.188260000000000     -0.271470000000000      1.768750000000000
H       1.249540000000000     -0.979890000000000      3.066170000000000
H       3.384570000000000     -2.433330000000000      1.384590000000000
H       3.582130000000000     -1.807170000000000      3.074510000000000
H       2.438320000000000     -3.168000000000000      2.746090000000000
H      -1.854810000000000     -1.514320000000000      1.197240000000000
H      -1.338570000000000     -2.535740000000000     -0.176170000000000
H      -2.101130000000000     -3.288050000000000      1.272380000000000
Na     -3.678310000000000     14.774609999999999      7.595720000000000
C      -1.653580000000000     12.335330000000001      6.747860000000000
C      -0.477120000000000     14.061190000000000      7.720000000000000
O      -1.426250000000000     13.728540000000001      6.729500000000000
C      -2.670330000000000     11.981590000000001      5.672080000000000
C      -0.246780000000000     15.566140000000001      7.706500000000000
H      -0.715470000000000     11.777520000000001      6.524800000000000
H      -2.073930000000000     12.017400000000000      7.728760000000000
H      -0.848320000000000     13.784250000000000      8.733079999999999
H       0.498780000000000     13.565939999999999      7.512910000000000
H      -1.196450000000000     16.100930000000002      7.920970000000000
H       0.500610000000000     15.838469999999999      8.481769999999999
H       0.134020000000000     15.886500000000000      6.713440000000000
H      -2.287030000000000     12.276000000000000      4.671890000000000
H      -2.856680000000000     10.886570000000001      5.677800000000000
H      -3.628420000000000     12.510420000000000      5.863060000000000
Na     -0.136120000000000     14.137029999999999      4.471390000000000
Mg     -2.721890000000000      7.333130000000000      6.862970000000000
H      -4.140240000000000      4.635810000000000      6.456760000000000
C      -3.098470000000000      4.841870000000000      4.534810000000000
C      -3.928630000000000      5.401170000000000      5.682730000000000
C      -1.688220000000000      4.401720000000000      4.959710000000000
H      -3.646160000000000      3.990990000000000      4.078440000000000
H      -2.986300000000000      5.640100000000000      3.769320000000000
H      -1.169800000000000      4.013330000000000      4.058660000000000
H      -1.112040000000000      5.273460000000000      5.335850000000000
C      -1.682710000000000      3.308900000000000      6.027080000000000
H      -4.883570000000000      5.827160000000000      5.313120000000000
H      -2.101180000000000      3.691870000000000      6.981080000000000
H      -2.269290000000000      2.429830000000000      5.687110000000000
H      -0.636780000000000      2.989360000000000      6.220420000000000
C       0.158540000000000      7.951110000000000      5.675610000000000
C       1.242130000000000      8.635780000000000      6.200330000000000
C       0.878010000000000      9.057359999999999      7.470200000000000
C      -0.403230000000000      8.594590000000000      7.673290000000000
N      -0.831040000000000      7.943810000000000      6.583390000000000
C      -1.268970000000000      8.767870000000000      8.907220000000001
N      -2.467570000000000      7.908790000000000      8.799320000000000
C      -3.476720000000000      7.877360000000000      9.872980000000000
H       2.190850000000000      8.812580000000001      5.712070000000000
H       0.100040000000000      7.494660000000000      4.695980000000000
H       1.480560000000000      9.622650000000000      8.167520000000000
H      -1.546650000000000      9.839060000000000      8.978999999999999
H      -0.680400000000000      8.464130000000001      9.793279999999999
C      -4.034810000000000      9.284970000000000     10.149419999999999
C      -4.632370000000000      6.959980000000000      9.432520000000000
C      -2.850460000000000      7.291860000000000     11.153670000000000
H      -4.486290000000000      9.710410000000000      9.227779999999999
H      -4.815030000000000      9.243850000000000     10.940149999999999
H      -3.236740000000000      9.968579999999999     10.504820000000000
H      -4.262290000000000      5.934190000000000      9.217409999999999
H      -5.402820000000000      6.889430000000000     10.232690000000000
H      -5.120400000000000      7.353440000000000      8.515269999999999
H      -2.453180000000000      6.272250000000000     10.954060000000000
H      -2.017840000000000      7.924730000000000     11.522040000000001
H      -3.604540000000000      7.222010000000000     11.966279999999999

-C 0
6-31g(d,p)
****
-H 0
6-31g(d,p)
****
-Mg 0
6-31g(d,p)
****
-N 0
6-31+g(d,p)
****
-Na 0
6-31g(d,p)
****
-O 0
6-31+g(d,p)
****


