%chk=lowest10_c1_a2_speciation0_speciationDFT1_speciationDFT37b_rank10_E165.14.chk
%nprocshared=20
%mem=40GB
#p opt=loose PM7/gen scf=xqc 

lowest10_c1_a2_speciation0_speciationDFT1_speciationDFT37b_rank10_E165.14 DFT input

0 1
Mg     -0.046920000000000     -0.194410000000000      0.555460000000000
C       1.529020000000000     -2.759820000000000     -0.485010000000000
C       2.480890000000000     -1.920430000000000      1.534300000000000
O       1.906700000000000     -1.630600000000000      0.277930000000000
C       0.497820000000000     -3.660160000000000      0.194730000000000
C       3.879780000000000     -2.497790000000000      1.395290000000000
H       1.043260000000000     -2.359050000000000     -1.392830000000000
H       2.408090000000000     -3.323140000000000     -0.855820000000000
H       2.567840000000000     -0.949020000000000      2.068630000000000
H       1.829100000000000     -2.548530000000000      2.175760000000000
H       4.484250000000000     -1.847780000000000      0.728130000000000
H       4.360610000000000     -2.546100000000000      2.394020000000000
H       3.828060000000000     -3.521820000000000      0.974320000000000
H      -0.322050000000000     -3.054710000000000      0.629730000000000
H       0.068200000000000     -4.355340000000000     -0.556620000000000
H       0.974650000000000     -4.263620000000000      0.991940000000000
H      -1.891010000000000     -0.992920000000000      2.182220000000000
C      -0.743200000000000      0.502610000000000      3.276020000000000
C      -0.838110000000000     -0.720750000000000      2.388260000000000
C      -1.367070000000000      1.720930000000000      2.585500000000000
H      -1.270880000000000      0.269870000000000      4.221930000000000
H       0.326650000000000      0.722470000000000      3.490700000000000
H      -0.758590000000000      1.998890000000000      1.699780000000000
H      -2.395860000000000      1.486840000000000      2.239540000000000
C      -1.440120000000000      2.905180000000000      3.541210000000000
H      -0.295450000000000     -1.582900000000000      2.824680000000000
H      -2.092480000000000      2.643580000000000      4.401690000000000
H      -0.429470000000000      3.173050000000000      3.915260000000000
H      -1.876950000000000      3.782820000000000      3.020110000000000
C       0.572240000000000      3.470260000000000     -0.225890000000000
C       1.563760000000000      2.655860000000000      0.287270000000000
C       1.584310000000000      1.517940000000000     -0.495170000000000
C       0.621080000000000      1.665640000000000     -1.401170000000000
N       0.003080000000000      2.914560000000000     -1.234180000000000
C       0.209880000000000      0.669030000000000     -2.457190000000000
N      -0.461770000000000     -0.500570000000000     -1.863370000000000
C      -1.941330000000000     -0.573920000000000     -1.947050000000000
H       2.180930000000000      2.856370000000000      1.155610000000000
H       0.283740000000000      4.437060000000000      0.154470000000000
H       2.241490000000000      0.672880000000000     -0.373150000000000
H       1.119280000000000      0.325100000000000     -2.994440000000000
H      -0.432980000000000      1.176970000000000     -3.193670000000000
C      -2.399870000000000     -0.659230000000000     -3.415690000000000
C      -2.385940000000000     -1.867970000000000     -1.234780000000000
C      -2.620000000000000      0.619890000000000     -1.242040000000000
H      -1.871090000000000     -1.488280000000000     -3.932150000000000
H      -3.493590000000000     -0.849010000000000     -3.469300000000000
H      -2.214110000000000      0.282310000000000     -3.966660000000000
H      -2.120040000000000     -1.835500000000000     -0.158330000000000
H      -3.487520000000000     -2.008680000000000     -1.301380000000000
H      -1.892470000000000     -2.755100000000000     -1.686910000000000
H      -2.389600000000000      0.623240000000000     -0.155550000000000
H      -2.290720000000000      1.584090000000000     -1.674630000000000
H      -3.724790000000000      0.561370000000000     -1.356450000000000
Na     -5.871590000000000    -11.332369999999999     -0.198490000000000
C      -4.689410000000000     -8.957260000000000      1.726310000000000
C      -6.992440000000000     -8.918329999999999      1.727290000000000
O      -5.841390000000000     -8.948729999999999      0.910830000000000
C      -3.451150000000000     -8.976369999999999      0.841620000000000
C      -8.231280000000000     -8.924960000000000      0.842980000000000
H      -4.642760000000000     -8.039440000000001      2.353750000000000
H      -4.664770000000000     -9.868610000000000      2.366150000000000
H      -7.038070000000000     -9.819319999999999      2.380870000000000
H      -7.016950000000000     -7.988830000000000      2.340840000000000
H      -8.250909999999999     -9.844030000000000      0.219300000000000
H      -9.144069999999999     -8.901430000000000      1.475320000000000
H      -8.231660000000000     -8.034789999999999      0.178650000000000
H      -3.431540000000000     -8.075860000000000      0.191640000000000
H      -2.538210000000000     -8.982139999999999      1.474230000000000
H      -3.451300000000000     -9.885560000000000      0.203520000000000
Na     -5.813600000000000     -6.557940000000000     -0.195590000000000
Mg     -7.359270000000000     -2.515880000000000      4.870000000000000
H      -8.140070000000000      0.030070000000000      6.427390000000000
C      -6.395970000000000     -0.630010000000000      7.569310000000000
C      -7.678990000000000     -0.904860000000000      6.807100000000000
C      -6.701470000000000      0.225660000000000      8.795280000000000
H      -5.943990000000000     -1.597140000000000      7.880020000000000
H      -5.682440000000000     -0.104410000000000      6.897430000000000
H      -7.162530000000000      1.183370000000000      8.468990000000000
H      -7.419300000000000     -0.314690000000000      9.450580000000000
C      -5.437430000000000      0.527580000000000      9.586589999999999
H      -8.399580000000000     -1.486620000000000      7.419250000000000
H      -4.969930000000000     -0.416360000000000      9.938960000000000
H      -4.713200000000000      1.084540000000000      8.954920000000000
H      -5.700400000000000      1.149840000000000     10.467060000000000
C      -9.550470000000001     -2.243050000000000      2.594380000000000
C      -9.618230000000001     -2.765800000000000      1.313590000000000
C      -8.461200000000000     -3.504930000000000      1.116480000000000
C      -7.730660000000000     -3.389310000000000      2.278540000000000
N      -8.399649999999999     -2.637600000000000      3.162900000000000
C      -6.375570000000000     -4.001190000000000      2.588270000000000
N      -5.873240000000000     -3.483580000000000      3.879060000000000
C      -4.563490000000000     -3.897420000000000      4.412580000000000
H     -10.421820000000000     -2.627980000000000      0.602900000000000
H     -10.294589999999999     -1.621230000000000      3.075530000000000
H      -8.181270000000000     -4.053710000000000      0.228150000000000
H      -5.673760000000000     -3.720550000000000      1.780270000000000
H      -6.500870000000000     -5.102670000000000      2.624890000000000
C      -3.442570000000000     -3.399060000000000      3.481530000000000
C      -4.368080000000000     -3.254070000000000      5.797620000000000
C      -4.494980000000000     -5.426720000000000      4.561710000000000
H      -3.494810000000000     -2.293010000000000      3.387150000000000
H      -2.443550000000000     -3.671990000000000      3.883440000000000
H      -3.530380000000000     -3.841880000000000      2.468850000000000
H      -5.154700000000000     -3.594400000000000      6.504370000000000
H      -3.377420000000000     -3.531520000000000      6.222320000000000
H      -4.414010000000000     -2.146040000000000      5.727690000000000
H      -5.306890000000000     -5.785720000000000      5.230260000000000
H      -4.597230000000000     -5.924860000000000      3.577140000000000
H      -3.518040000000000     -5.732800000000000      4.993750000000000

-C 0
6-31g(d,p)
****
-H 0
6-31g(d,p)
****
-Mg 0
6-31g(d,p)
****
-N 0
6-31+g(d,p)
****
-Na 0
6-31g(d,p)
****
-O 0
6-31+g(d,p)
****


