%chk=lowest10_c1_a2_speciation0_speciationDFT0_speciationDFT36_rank07_E180.89.chk
%nprocshared=20
%mem=40GB
#p opt=loose PM7/gen scf=xqc 

lowest10_c1_a2_speciation0_speciationDFT0_speciationDFT36_rank07_E180.89 DFT input

0 1
Mg     -0.293430000000000      0.400760000000000      0.667210000000000
C       0.967700000000000     -2.472010000000000     -1.401190000000000
C      -1.337230000000000     -2.549810000000000     -1.388020000000000
O      -0.187760000000000     -2.306160000000000     -0.602320000000000
C       2.187090000000000     -2.641970000000000     -0.507740000000000
C      -2.589030000000000     -2.284830000000000     -0.562120000000000
H       0.908090000000000     -3.383950000000000     -2.036120000000000
H       1.119010000000000     -1.582740000000000     -2.047370000000000
H      -1.360980000000000     -1.891010000000000     -2.281310000000000
H      -1.366580000000000     -3.609860000000000     -1.717550000000000
H      -2.624270000000000     -1.226710000000000     -0.232940000000000
H      -3.492100000000000     -2.494900000000000     -1.173500000000000
H      -2.599200000000000     -2.942400000000000      0.331850000000000
H       2.060970000000000     -3.524630000000000      0.151270000000000
H       3.096530000000000     -2.768110000000000     -1.131110000000000
H       2.331720000000000     -1.758040000000000      0.129150000000000
H      -2.279290000000000     -1.426510000000000      2.360540000000000
C      -2.431600000000000      0.741140000000000      2.734770000000000
C      -1.635010000000000     -0.542040000000000      2.529780000000000
C      -3.341980000000000      1.044710000000000      1.536530000000000
H      -3.041390000000000      0.616630000000000      3.652130000000000
H      -1.725890000000000      1.589930000000000      2.877450000000000
H      -2.731720000000000      1.232260000000000      0.625240000000000
H      -4.010330000000000      0.178710000000000      1.343660000000000
C      -4.210460000000000      2.269920000000000      1.813550000000000
H      -0.919780000000000     -0.714550000000000      3.359760000000000
H      -4.841820000000000      2.090280000000000      2.710110000000000
H      -3.578880000000000      3.166920000000000      1.987350000000000
H      -4.877720000000000      2.465040000000000      0.947440000000000
C      -1.506750000000000      0.663290000000000     -2.242420000000000
C      -0.906900000000000      0.971680000000000     -3.450480000000000
C       0.434570000000000      1.203090000000000     -3.183200000000000
C       0.599400000000000      1.011780000000000     -1.831010000000000
N      -0.575210000000000      0.677170000000000     -1.280400000000000
C       1.866260000000000      1.166280000000000     -1.008320000000000
N       1.700120000000000      0.568670000000000      0.337020000000000
C       2.636920000000000      0.943730000000000      1.415130000000000
H      -1.392720000000000      1.023180000000000     -4.413880000000000
H      -2.553820000000000      0.427890000000000     -2.086480000000000
H       1.205020000000000      1.469590000000000     -3.893080000000000
H       2.702810000000000      0.648560000000000     -1.519240000000000
H       2.074740000000000      2.252150000000000     -0.947700000000000
C       2.384480000000000      2.385490000000000      1.890730000000000
C       2.416690000000000     -0.005730000000000      2.610580000000000
C       4.091590000000000      0.785910000000000      0.929300000000000
H       1.352660000000000      2.488700000000000      2.290500000000000
H       3.100520000000000      2.651740000000000      2.699130000000000
H       2.521400000000000      3.116280000000000      1.070180000000000
H       2.599300000000000     -1.063780000000000      2.328220000000000
H       3.108650000000000      0.247240000000000      3.443710000000000
H       1.377460000000000      0.074890000000000      2.991790000000000
H       4.266250000000000     -0.253040000000000      0.573660000000000
H       4.308080000000000      1.482690000000000      0.093290000000000
H       4.809390000000000      1.001890000000000      1.748410000000000
Na     -0.692490000000000     -0.059350000000000     10.328390000000001
C      -2.786290000000000      0.700230000000000     12.702570000000000
C      -3.390050000000000     -1.287870000000000     11.706899999999999
O      -3.031190000000000      0.056720000000000     11.470219999999999
C      -2.406160000000000      2.151030000000000     12.441640000000000
C      -3.639180000000000     -1.980210000000000     10.374370000000001
H      -3.700700000000000      0.698340000000000     13.338730000000000
H      -1.937110000000000      0.217790000000000     13.238090000000000
H      -2.567140000000000     -1.833150000000000     12.223030000000000
H      -4.330380000000000     -1.345660000000000     12.301310000000001
H      -2.719030000000000     -1.956260000000000      9.752459999999999
H      -3.925910000000000     -3.038870000000000     10.549410000000000
H      -4.461740000000000     -1.471320000000000      9.827890000000000
H      -3.232980000000000      2.674740000000000     11.916370000000001
H      -2.210180000000000      2.666980000000000     13.405570000000001
H      -1.489680000000000      2.199840000000000     11.816000000000001
Na     -5.267830000000000      1.164400000000000     10.620670000000000
Mg      0.323680000000000     -3.776360000000000      6.961950000000000
H      -0.621200000000000     -5.821550000000000      4.753940000000000
C       1.543880000000000     -5.914360000000000      4.429680000000000
C       0.273210000000000     -5.167800000000000      4.800720000000000
C       1.815740000000000     -7.120980000000000      5.339070000000000
H       1.437210000000000     -6.268680000000000      3.383240000000000
H       2.406400000000000     -5.216000000000000      4.476270000000000
H       0.963560000000000     -7.833540000000000      5.293240000000000
H       2.721290000000000     -7.634160000000000      4.952200000000000
C       2.079270000000000     -6.737570000000000      6.796880000000000
H       0.135490000000000     -4.284180000000000      4.140720000000000
H       1.173360000000000     -6.299680000000000      7.262360000000000
H       2.358220000000000     -7.648970000000000      7.368730000000000
H       2.917470000000000     -6.011590000000000      6.865600000000000
C      -0.973140000000000     -5.290200000000000      9.436579999999999
C      -0.816540000000000     -5.123390000000000     10.802940000000000
C       0.101600000000000     -4.099940000000000     10.982550000000000
C       0.480860000000000     -3.701060000000000      9.720039999999999
N      -0.183210000000000     -4.412070000000000      8.798570000000000
C       1.479850000000000     -2.622480000000000      9.346570000000000
N       1.771590000000000     -2.694140000000000      7.899170000000000
C       2.750090000000000     -1.785220000000000      7.276320000000000
H      -1.316580000000000     -5.681800000000000     11.582490000000000
H      -1.623340000000000     -6.003410000000000      8.946540000000001
H       0.461000000000000     -3.703720000000000     11.922350000000000
H       1.041540000000000     -1.641300000000000      9.617830000000000
H       2.410550000000000     -2.796450000000000      9.918200000000001
C       4.155210000000000     -2.067940000000000      7.843720000000000
C       2.775410000000000     -2.055320000000000      5.761380000000000
C       2.365590000000000     -0.314400000000000      7.514980000000000
H       4.433950000000000     -3.129930000000000      7.665030000000000
H       4.914950000000000     -1.419030000000000      7.358310000000000
H       4.198590000000000     -1.874490000000000      8.934519999999999
H       1.781850000000000     -1.854310000000000      5.306310000000000
H       3.526650000000000     -1.404390000000000      5.262230000000000
H       3.047270000000000     -3.112120000000000      5.555990000000000
H       1.353420000000000     -0.108050000000000      7.106090000000000
H       2.369770000000000     -0.072190000000000      8.597680000000000
H       3.093580000000000      0.362410000000000      7.017470000000000

-C 0
6-31g(d,p)
****
-H 0
6-31g(d,p)
****
-Mg 0
6-31g(d,p)
****
-N 0
6-31+g(d,p)
****
-Na 0
6-31g(d,p)
****
-O 0
6-31+g(d,p)
****


