%chk=lowest10_c1_a2_speciation7_speciationDFT37b_speciationDFT96_rank04_E209.99.chk
%nprocshared=20
%mem=40GB
#p opt=loose PM7/gen scf=xqc 

lowest10_c1_a2_speciation7_speciationDFT37b_speciationDFT96_rank04_E209.99 DFT input

0 1
Mg     -0.141120000000000     -0.230340000000000     -0.379500000000000
C      -2.417260000000000      2.044620000000000      1.013610000000000
C      -1.642450000000000      0.392960000000000      2.552300000000000
O      -1.451400000000000      1.054250000000000      1.315480000000000
C      -2.381740000000000      3.242550000000000      1.957530000000000
C      -2.933840000000000     -0.418290000000000      2.618570000000000
H      -2.171470000000000      2.419930000000000     -0.003390000000000
H      -3.439030000000000      1.626200000000000      0.938900000000000
H      -0.812810000000000     -0.335240000000000      2.649780000000000
H      -1.527640000000000      1.080180000000000      3.414860000000000
H      -3.007000000000000     -1.093490000000000      1.740890000000000
H      -2.930600000000000     -1.031540000000000      3.543810000000000
H      -3.817450000000000      0.248860000000000      2.652260000000000
H      -1.359590000000000      3.668260000000000      2.009610000000000
H      -3.074390000000000      4.021870000000000      1.575950000000000
H      -2.716590000000000      2.950640000000000      2.972280000000000
H      -2.132470000000000      0.770130000000000     -2.348690000000000
C      -3.373290000000000     -0.745050000000000     -1.358510000000000
C      -2.062920000000000     -0.258510000000000     -1.938540000000000
C      -4.417270000000000     -0.818340000000000     -2.459820000000000
H      -3.228390000000000     -1.747190000000000     -0.904850000000000
H      -3.703730000000000     -0.046460000000000     -0.565370000000000
H      -4.547440000000000      0.191310000000000     -2.906970000000000
H      -4.067660000000000     -1.522220000000000     -3.246250000000000
C      -5.749490000000000     -1.299860000000000     -1.908310000000000
H      -1.642130000000000     -0.973290000000000     -2.675750000000000
H      -5.637040000000000     -2.313020000000000     -1.466520000000000
H      -6.116900000000000     -0.598290000000000     -1.129040000000000
H      -6.487650000000000     -1.343880000000000     -2.734390000000000
C       4.652140000000000      0.771960000000000     -0.623310000000000
C       4.865420000000000     -0.558500000000000     -0.876830000000000
C       3.948790000000000     -1.285610000000000     -0.125890000000000
C       3.184570000000000     -0.417600000000000      0.553030000000000
N       3.598490000000000      0.897370000000000      0.291950000000000
C       2.068820000000000     -0.716880000000000      1.536570000000000
N       0.847540000000000     -1.324100000000000      0.981540000000000
C       0.682200000000000     -2.755430000000000      0.684990000000000
H       5.623050000000000     -0.950130000000000     -1.543880000000000
H       5.195820000000000      1.604570000000000     -1.047320000000000
H       3.895200000000000     -2.358020000000000     -0.100470000000000
H       1.749640000000000      0.269150000000000      1.940840000000000
H       2.449350000000000     -1.289230000000000      2.400640000000000
C       1.549230000000000     -3.615790000000000      1.607130000000000
C      -0.797400000000000     -3.104020000000000      0.938060000000000
C       0.973520000000000     -3.032780000000000     -0.803920000000000
H       1.299440000000000     -3.382730000000000      2.664390000000000
H       1.364830000000000     -4.693010000000000      1.422540000000000
H       2.622900000000000     -3.411720000000000      1.441520000000000
H      -1.456510000000000     -2.485470000000000      0.296030000000000
H      -1.003490000000000     -4.172110000000000      0.709680000000000
H      -1.077570000000000     -2.906580000000000      1.994650000000000
H       0.266790000000000     -2.476100000000000     -1.458910000000000
H       1.988340000000000     -2.731190000000000     -1.098260000000000
H       0.858330000000000     -4.115460000000000     -1.025010000000000
C       1.486890000000000      1.958370000000000     -1.970940000000000
C       1.047840000000000      2.811280000000000      0.185400000000000
O       0.635230000000000      1.932130000000000     -0.842200000000000
C       1.606000000000000      0.554050000000000     -2.567450000000000
C       0.683410000000000      4.244790000000000     -0.139820000000000
H       1.037480000000000      2.625510000000000     -2.733680000000000
H       2.514490000000000      2.312450000000000     -1.739070000000000
H       0.533310000000000      2.511510000000000      1.120000000000000
H       2.122560000000000      2.740390000000000      0.420270000000000
H      -0.406440000000000      4.322140000000000     -0.330280000000000
H       0.959110000000000      4.891280000000000      0.718730000000000
H       1.245830000000000      4.572710000000000     -1.037290000000000
H       2.057700000000000     -0.150340000000000     -1.845370000000000
H       0.611420000000000      0.156520000000000     -2.853040000000000
H       2.249170000000000      0.581630000000000     -3.470970000000000
Na     -0.273200000000000     -1.573080000000000      9.626980000000000
C       1.186030000000000     -0.380570000000000      7.043280000000000
C       0.686660000000000     -2.605860000000000      6.496800000000000
O       1.052220000000000     -1.703990000000000      7.523760000000000
C      -0.143350000000000      0.362630000000000      7.125530000000000
C       1.919740000000000     -3.199520000000000      5.820850000000000
H       1.919520000000000      0.143590000000000      7.692020000000000
H       1.600750000000000     -0.337160000000000      6.010960000000000
H       0.110070000000000     -3.432580000000000      6.963940000000000
H       0.011880000000000     -2.145940000000000      5.740690000000000
H       2.551560000000000     -3.731220000000000      6.562040000000000
H       1.599780000000000     -3.927850000000000      5.047670000000000
H       2.521700000000000     -2.404320000000000      5.334560000000000
H      -0.510440000000000      0.375460000000000      8.173209999999999
H      -0.004780000000000      1.408680000000000      6.782100000000000
H      -0.903840000000000     -0.124140000000000      6.481500000000000
C      -3.121240000000000     -2.232590000000000      7.949170000000000
C      -3.463740000000000     -2.286910000000000     10.308439999999999
O      -2.535110000000000     -2.236300000000000      9.239080000000000
C      -3.990890000000000     -1.006260000000000      7.669550000000000
C      -4.293280000000000     -3.570490000000000     10.337770000000001
H      -2.281790000000000     -2.200430000000000      7.223250000000000
H      -3.659070000000000     -3.179360000000000      7.737930000000000
H      -2.866120000000000     -2.270000000000000     11.245279999999999
H      -4.100980000000000     -1.379470000000000     10.348340000000000
H      -3.624210000000000     -4.456380000000000     10.319820000000000
H      -4.898780000000000     -3.593860000000000     11.267950000000001
H      -4.993120000000000     -3.611830000000000      9.478859999999999
H      -3.414420000000000     -0.076830000000000      7.860800000000000
H      -4.309020000000000     -1.020080000000000      6.605790000000000
H      -4.906670000000000     -1.015170000000000      8.294380000000000
Na      2.937500000000000     -2.693960000000000      8.630610000000001
C       1.833260000000000     -2.116200000000000     11.723380000000001
C       1.214140000000000     -4.232640000000000     10.939730000000001
O       1.521770000000000     -2.898720000000000     10.589240000000000
C       2.499320000000000     -0.827520000000000     11.257960000000001
C      -0.214560000000000     -4.369070000000000     11.461539999999999
H       0.903610000000000     -1.844810000000000     12.268160000000000
H       2.547150000000000     -2.630150000000000     12.405640000000000
H       1.296020000000000     -4.842060000000000     10.014230000000000
H       1.950520000000000     -4.661690000000000     11.654809999999999
H      -0.934070000000000     -3.989820000000000     10.707120000000000
H      -0.434920000000000     -5.438930000000000     11.659340000000000
H      -0.344150000000000     -3.805380000000000     12.406750000000001
H       1.826310000000000     -0.273870000000000     10.568680000000001
H       2.727300000000000     -0.182410000000000     12.132310000000000
H       3.446720000000000     -1.056910000000000     10.726900000000001
C       6.012640000000000     -3.157010000000000      9.783060000000001
C       5.989750000000000     -1.307430000000000      8.390930000000001
O       5.204000000000000     -2.276890000000000      9.040550000000000
C       5.109520000000000     -4.195820000000000     10.434380000000001
C       5.057100000000000     -0.373050000000000      7.631980000000000
H       6.731530000000000     -3.691640000000000      9.121880000000001
H       6.549230000000000     -2.610890000000000     10.591030000000000
H       6.560240000000000     -0.699790000000000      9.129030000000000
H       6.676860000000000     -1.783340000000000      7.655460000000000
H       4.356960000000000      0.118580000000000      8.340890000000000
H       5.643360000000000      0.407990000000000      7.104890000000000
H       4.466740000000000     -0.947370000000000      6.885370000000000
H       4.554890000000000     -4.762060000000000      9.655200000000001
H       5.713270000000000     -4.905830000000000     11.036550000000000
H       4.376930000000000     -3.694070000000000     11.099970000000001
Mg     -0.969880000000000     -1.678660000000000     18.502849999999999
C      -2.298480000000000     -3.734520000000000     16.402609999999999
C      -2.450370000000000     -1.485730000000000     15.630390000000000
O      -2.550510000000000     -2.378180000000000     16.722200000000001
C      -0.896290000000000     -3.998790000000000     15.852259999999999
C      -3.608710000000000     -1.638920000000000     14.654030000000001
H      -2.370960000000000     -4.292330000000000     17.356819999999999
H      -3.089440000000000     -4.159950000000000     15.753290000000000
H      -2.503350000000000     -0.459530000000000     16.054390000000001
H      -1.466440000000000     -1.535340000000000     15.121700000000001
H      -4.571160000000000     -1.556630000000000     15.201710000000000
H      -3.553910000000000     -0.835940000000000     13.890110000000000
H      -3.555260000000000     -2.617600000000000     14.136450000000000
H      -0.132270000000000     -3.521840000000000     16.496340000000000
H      -0.713430000000000     -5.093270000000000     15.825120000000000
H      -0.797060000000000     -3.612880000000000     14.819760000000000
H       1.567110000000000     -1.303150000000000     17.890100000000000
C       0.675130000000000      0.679900000000000     17.987639999999999
C       0.656900000000000     -0.770430000000000     17.546350000000000
C       0.657370000000000      0.771690000000000     19.517130000000002
H       1.588460000000000      1.153360000000000     17.572820000000000
H      -0.223720000000000      1.198530000000000     17.586140000000000
H      -0.305170000000000      0.371500000000000     19.902259999999998
H       1.484640000000000      0.169290000000000     19.949240000000000
C       0.822190000000000      2.214770000000000     19.975980000000000
H       0.565270000000000     -0.851610000000000     16.444009999999999
H       1.805790000000000      2.602170000000000     19.634129999999999
H       0.012460000000000      2.852920000000000     19.563279999999999
H       0.788570000000000      2.260420000000000     21.084720000000001
C      -2.719120000000000      0.234010000000000     21.431110000000000
C      -3.175490000000000      0.260350000000000     20.133340000000000
C      -3.249740000000000     -1.049530000000000     19.693709999999999
C      -2.837210000000000     -1.846120000000000     20.685919999999999
N      -2.506860000000000     -1.095720000000000     21.830649999999999
C      -2.737280000000000     -3.348340000000000     20.631850000000000
N      -1.663250000000000     -3.788630000000000     19.723970000000001
C      -0.379910000000000     -4.211080000000000     20.339710000000000
H      -3.417970000000000      1.151020000000000     19.567129999999999
H      -2.541560000000000      1.097110000000000     22.055890000000002
H      -3.578100000000000     -1.365520000000000     18.716650000000001
H      -3.705390000000000     -3.754870000000000     20.269800000000000
H      -2.589170000000000     -3.727640000000000     21.656600000000001
C      -0.575980000000000     -5.473650000000000     21.204609999999999
C       0.595170000000000     -4.569470000000000     19.201740000000001
C       0.257450000000000     -3.078680000000000     21.172470000000001
H      -1.052970000000000     -6.277110000000000     20.603629999999999
H       0.403520000000000     -5.844890000000000     21.575679999999998
H      -1.200620000000000     -5.282890000000000     22.097690000000000
H       0.805440000000000     -3.682040000000000     18.571310000000000
H       1.567460000000000     -4.927990000000000     19.607050000000001
H       0.171820000000000     -5.369040000000000     18.556200000000000
H       0.463930000000000     -2.191410000000000     20.536930000000002
H      -0.399690000000000     -2.769880000000000     22.008140000000001
H       1.221830000000000     -3.416040000000000     21.611429999999999

-C 0
6-31g(d,p)
****
-H 0
6-31g(d,p)
****
-Mg 0
6-31g(d,p)
****
-N 0
6-31+g(d,p)
****
-Na 0
6-31g(d,p)
****
-O 0
6-31+g(d,p)
****


