%chk=lowest10_c1_a2_speciation0_speciationDFT2_speciationDFT38_rank10_E181.17.chk
%nprocshared=20
%mem=40GB
#p opt=loose PM7/gen scf=xqc 

lowest10_c1_a2_speciation0_speciationDFT2_speciationDFT38_rank10_E181.17 DFT input

0 1
Mg      0.449660000000000      0.141870000000000     -0.896070000000000
C      -2.244400000000000     -1.130110000000000      0.501140000000000
C      -0.349090000000000     -2.521770000000000      0.948970000000000
O      -0.909910000000000     -1.480570000000000      0.179260000000000
C      -2.524330000000000     -0.903850000000000      1.988580000000000
C      -1.002960000000000     -3.865870000000000      0.669500000000000
H      -2.430740000000000     -0.159070000000000      0.001930000000000
H      -2.959730000000000     -1.851840000000000      0.057830000000000
H       0.713430000000000     -2.601450000000000      0.649570000000000
H      -0.317260000000000     -2.277870000000000      2.029080000000000
H      -0.441340000000000     -4.659700000000000      1.203930000000000
H      -0.985950000000000     -4.078420000000000     -0.419510000000000
H      -2.050960000000000     -3.862310000000000      1.027290000000000
H      -1.797270000000000     -0.196180000000000      2.419560000000000
H      -2.489080000000000     -1.861100000000000      2.546390000000000
H      -3.534700000000000     -0.465050000000000      2.110530000000000
H       0.464060000000000     -1.365450000000000     -3.094300000000000
C       2.595170000000000     -1.200430000000000     -2.601450000000000
C       1.185760000000000     -0.600640000000000     -2.743570000000000
C       2.733430000000000     -2.321370000000000     -1.552060000000000
H       2.909280000000000     -1.590540000000000     -3.591750000000000
H       3.292400000000000     -0.387430000000000     -2.305850000000000
H       3.791150000000000     -2.669500000000000     -1.550460000000000
H       2.517600000000000     -1.918410000000000     -0.542150000000000
C       1.843230000000000     -3.533710000000000     -1.824810000000000
H       1.201010000000000      0.245130000000000     -3.457250000000000
H       0.774800000000000     -3.246920000000000     -1.789140000000000
H       2.072440000000000     -3.971310000000000     -2.818350000000000
H       2.017710000000000     -4.308850000000000     -1.046430000000000
C       1.692910000000000     -0.375370000000000      2.802080000000000
C       2.539390000000000     -0.036850000000000      1.771350000000000
C       1.931180000000000      0.977700000000000      1.053110000000000
C       0.742060000000000      1.229440000000000      1.611250000000000
N       0.541710000000000      0.422230000000000      2.748790000000000
C      -0.286230000000000      2.200010000000000      1.093960000000000
N      -0.674610000000000      1.802560000000000     -0.264850000000000
C      -1.567200000000000      2.692000000000000     -1.046410000000000
H       3.491540000000000     -0.504490000000000      1.559660000000000
H       1.866980000000000     -1.147490000000000      3.537970000000000
H       2.325370000000000      1.445580000000000      0.158810000000000
H       0.142460000000000      3.219230000000000      1.111730000000000
H      -1.173780000000000      2.153860000000000      1.758410000000000
C      -0.853320000000000      4.014510000000000     -1.387570000000000
C      -1.946290000000000      1.982380000000000     -2.356720000000000
C      -2.866660000000000      2.998670000000000     -0.262940000000000
H       0.066730000000000      3.817940000000000     -1.976400000000000
H      -1.521450000000000      4.676370000000000     -1.981260000000000
H      -0.576820000000000      4.575300000000000     -0.471970000000000
H      -2.498120000000000      1.040890000000000     -2.151460000000000
H      -2.597000000000000      2.634090000000000     -2.982500000000000
H      -1.035430000000000      1.735840000000000     -2.941400000000000
H      -3.403490000000000      2.060700000000000     -0.005910000000000
H      -2.654910000000000      3.550260000000000      0.676840000000000
H      -3.552900000000000      3.631360000000000     -0.867930000000000
Na     -2.757560000000000     15.055790000000000      8.443820000000001
C      -1.572840000000000     12.032819999999999      8.929850000000000
C      -2.118110000000000     13.019460000000000     10.939010000000000
O      -1.417390000000000     13.188650000000001      9.725379999999999
C      -0.807770000000000     12.217390000000000      7.627280000000000
C      -1.960060000000000     14.274290000000001     11.786610000000000
H      -1.155090000000000     11.137779999999999      9.444979999999999
H      -2.644420000000000     11.871960000000000      8.673370000000000
H      -3.206130000000000     12.872339999999999     10.750920000000001
H      -1.702710000000000     12.163440000000000     11.517980000000000
H      -2.373670000000000     15.154059999999999     11.249210000000000
H      -2.506700000000000     14.150800000000000     12.745630000000000
H      -0.886440000000000     14.455090000000000     12.006750000000000
H       0.271800000000000     12.374290000000000      7.836790000000000
H      -0.923370000000000     11.312810000000001      6.993110000000000
H      -1.201200000000000     13.096940000000000      7.074390000000000
Na      1.112810000000000     13.128650000000000     10.455410000000001
Mg     -2.241540000000000      7.990060000000000      5.867710000000000
H      -2.360620000000000      6.199510000000000      3.367210000000000
C      -0.231560000000000      6.046410000000000      3.878730000000000
C      -1.516150000000000      6.842050000000000      3.689140000000000
C      -0.312690000000000      5.014700000000000      5.015710000000000
H       0.021650000000000      5.544690000000000      2.921490000000000
H       0.582670000000000      6.760580000000000      4.129430000000000
H       0.666660000000000      4.490870000000000      5.066750000000000
H      -0.479830000000000      5.527950000000000      5.986570000000000
C      -1.409160000000000      3.969670000000000      4.817160000000000
H      -1.372260000000000      7.658950000000000      2.952870000000000
H      -2.413070000000000      4.440840000000000      4.859020000000000
H      -1.280370000000000      3.453230000000000      3.844350000000000
H      -1.353220000000000      3.217840000000000      5.632630000000000
C      -0.339440000000000      7.368660000000000      8.332160000000000
C      -0.533690000000000      7.483810000000000      9.699680000000001
C      -1.827660000000000      7.946350000000000      9.882980000000000
C      -2.373740000000000      8.074070000000001      8.626429999999999
N      -1.461000000000000      7.736250000000000      7.699460000000000
C      -3.770640000000000      8.531440000000000      8.258550000000000
N      -4.016300000000000      8.285030000000001      6.821850000000000
C      -5.307430000000000      8.631320000000001      6.202190000000000
H       0.185430000000000      7.260520000000000     10.474660000000000
H       0.568130000000000      7.040010000000000      7.839230000000000
H      -2.318600000000000      8.153269999999999     10.825340000000001
H      -3.848950000000000      9.611190000000001      8.501090000000000
H      -4.497770000000000      7.951140000000000      8.858210000000000
C      -5.632510000000000     10.123270000000000      6.397220000000000
C      -5.223350000000000      8.331910000000001      4.694150000000000
C      -6.423170000000000      7.759460000000000      6.810870000000000
H      -4.829660000000000     10.754740000000000      5.960270000000000
H      -6.593960000000000     10.378299999999999      5.901020000000000
H      -5.737170000000000     10.372120000000001      7.473170000000000
H      -4.982530000000000      7.261310000000000      4.517010000000000
H      -6.193020000000000      8.555820000000001      4.195820000000000
H      -4.435470000000000      8.950049999999999      4.212950000000000
H      -6.190040000000000      6.681800000000000      6.663930000000000
H      -6.534880000000000      7.947180000000000      7.897950000000000
H      -7.400820000000000      7.975930000000000      6.330060000000000

-C 0
6-31g(d,p)
****
-H 0
6-31g(d,p)
****
-Mg 0
6-31g(d,p)
****
-N 0
6-31+g(d,p)
****
-Na 0
6-31g(d,p)
****
-O 0
6-31+g(d,p)
****


