%chk=lowest10_c1_a2_speciation7_speciationDFT37b_speciationDFT37b_rank04_E187.83.chk
%nprocshared=20
%mem=40GB
#p opt=loose PM7/gen scf=xqc 

lowest10_c1_a2_speciation7_speciationDFT37b_speciationDFT37b_rank04_E187.83 DFT input

0 1
Mg     -0.105890000000000      0.355460000000000     -0.336680000000000
C      -3.118050000000000     -0.504920000000000      0.256640000000000
C      -2.866710000000000      1.865820000000000      0.324170000000000
O      -2.328490000000000      0.601510000000000      0.647210000000000
C      -3.382200000000000     -0.587790000000000     -1.246410000000000
C      -4.066290000000000      2.207140000000000      1.192590000000000
H      -2.528440000000000     -1.401660000000000      0.519660000000000
H      -4.045770000000000     -0.585590000000000      0.856980000000000
H      -2.069080000000000      2.609240000000000      0.542690000000000
H      -3.084850000000000      1.982050000000000     -0.757360000000000
H      -3.805420000000000      2.054960000000000      2.261120000000000
H      -4.349020000000000      3.267890000000000      1.031660000000000
H      -4.927150000000000      1.563660000000000      0.921630000000000
H      -2.447340000000000     -0.416400000000000     -1.816050000000000
H      -3.771050000000000     -1.597690000000000     -1.493990000000000
H      -4.141840000000000      0.159390000000000     -1.549420000000000
H       0.120970000000000      0.771630000000000     -2.888370000000000
C       0.845050000000000      2.584770000000000     -1.916540000000000
C      -0.166820000000000      1.468960000000000     -2.076610000000000
C       2.211870000000000      2.020720000000000     -1.511710000000000
H       0.907660000000000      3.119410000000000     -2.884820000000000
H       0.500200000000000      3.287580000000000     -1.125240000000000
H       2.147990000000000      1.585730000000000     -0.492370000000000
H       2.523760000000000      1.217830000000000     -2.212390000000000
C       3.273910000000000      3.112870000000000     -1.530520000000000
H      -1.184900000000000      1.867990000000000     -2.256930000000000
H       3.373690000000000      3.510900000000000     -2.563040000000000
H       3.000320000000000      3.940950000000000     -0.843150000000000
H       4.252290000000000      2.691540000000000     -1.217790000000000
C       2.757200000000000      0.860630000000000      2.112560000000000
C       1.555940000000000      1.530740000000000      2.246370000000000
C       0.560350000000000      0.577500000000000      2.158940000000000
C       1.170030000000000     -0.587020000000000      1.953630000000000
N       2.560810000000000     -0.397680000000000      1.948910000000000
C       0.512650000000000     -1.928080000000000      1.738710000000000
N      -0.163420000000000     -1.995340000000000      0.431200000000000
C       0.512060000000000     -2.727720000000000     -0.667920000000000
H       1.420770000000000      2.600170000000000      2.360800000000000
H       3.738670000000000      1.307290000000000      2.124240000000000
H      -0.500250000000000      0.756310000000000      2.223210000000000
H      -0.242590000000000     -2.084930000000000      2.536220000000000
H       1.273340000000000     -2.717820000000000      1.846010000000000
C       0.666960000000000     -4.219560000000000     -0.314510000000000
C      -0.386700000000000     -2.627070000000000     -1.917370000000000
C       1.884990000000000     -2.112560000000000     -1.012860000000000
H      -0.315770000000000     -4.645060000000000     -0.019730000000000
H       1.049800000000000     -4.786750000000000     -1.190260000000000
H       1.388840000000000     -4.381350000000000      0.508420000000000
H      -0.491800000000000     -1.571490000000000     -2.241590000000000
H       0.042290000000000     -3.196670000000000     -2.771320000000000
H      -1.401630000000000     -3.027100000000000     -1.705480000000000
H       1.772280000000000     -1.070580000000000     -1.380540000000000
H       2.555890000000000     -2.104500000000000     -0.132470000000000
H       2.385770000000000     -2.703700000000000     -1.810870000000000
Na      3.323010000000000     -2.524470000000000      7.712930000000000
C       5.821840000000000     -0.627690000000000      8.313430000000000
C       5.479210000000000     -0.494260000000000      5.996680000000000
O       5.416770000000000     -1.316670000000000      7.146360000000000
C       4.633890000000000      0.063130000000000      8.975320000000000
C       6.847160000000000     -0.588310000000000      5.325620000000000
H       6.230950000000000     -1.375670000000000      9.025219999999999
H       6.644730000000000      0.097190000000000      8.121510000000001
H       4.710730000000000     -0.855700000000000      5.280350000000000
H       5.224950000000000      0.566960000000000      6.213930000000000
H       7.064130000000000     -1.635680000000000      5.029950000000000
H       6.853750000000000      0.044070000000000      4.413400000000000
H       7.644900000000000     -0.232830000000000      6.009900000000000
H       3.850640000000000     -0.681270000000000      9.229570000000001
H       4.968550000000000      0.563210000000000      9.907780000000001
H       4.200060000000000      0.827740000000000      8.299280000000000
C       1.449030000000000     -0.005980000000000      6.496850000000000
C       0.116440000000000     -1.913500000000000      7.017050000000000
O       1.417620000000000     -1.377430000000000      6.850770000000000
C       0.858070000000000      0.919030000000000      7.561780000000000
C      -0.716520000000000     -1.900590000000000      5.736160000000000
H       2.520360000000000      0.267170000000000      6.396210000000000
H       1.003260000000000      0.172610000000000      5.496770000000000
H       0.249380000000000     -2.979510000000000      7.301980000000000
H      -0.420660000000000     -1.445440000000000      7.867620000000000
H      -0.155420000000000     -2.398340000000000      4.919000000000000
H      -1.665330000000000     -2.449900000000000      5.909920000000000
H      -0.975420000000000     -0.864330000000000      5.438380000000000
H       1.346700000000000      0.735670000000000      8.541940000000000
H       1.031940000000000      1.974610000000000      7.264950000000000
H      -0.236830000000000      0.772460000000000      7.655690000000000
Na      6.576840000000000     -3.335300000000000      6.582040000000000
C       4.278060000000000     -5.389060000000000      7.843440000000000
C       3.937360000000000     -4.970110000000000      5.565820000000000
O       4.442890000000000     -4.467030000000000      6.785830000000000
C       5.153730000000000     -4.952600000000000      9.011440000000000
C       2.418200000000000     -4.838460000000000      5.480800000000000
H       3.221790000000000     -5.390800000000000      8.188280000000001
H       4.595100000000000     -6.417350000000000      7.558210000000000
H       4.376020000000000     -4.355350000000000      4.750770000000000
H       4.266110000000000     -6.015090000000000      5.372020000000000
H       2.118550000000000     -3.779050000000000      5.616820000000000
H       2.072920000000000     -5.181710000000000      4.483110000000000
H       1.925380000000000     -5.460670000000000      6.254150000000000
H       4.879710000000000     -3.925580000000000      9.335050000000001
H       5.017080000000000     -5.646900000000000      9.867000000000001
H       6.222730000000000     -4.961140000000000      8.712389999999999
C       8.816530000000000     -5.779370000000000      6.594840000000000
C       9.506290000000000     -4.101430000000000      8.033400000000000
O       8.462280000000000     -4.566010000000000      7.212820000000000
C       7.661350000000000     -6.211460000000000      5.701540000000000
C       9.049600000000000     -2.806870000000000      8.692560000000000
H       9.718410000000000     -5.652120000000000      5.954390000000000
H       8.980729999999999     -6.574890000000000      7.355860000000000
H       9.734859999999999     -4.835780000000000      8.838329999999999
H      10.415360000000000     -3.880790000000000      7.429730000000000
H       8.141170000000001     -2.994960000000000      9.303990000000001
H       9.850050000000000     -2.408590000000000      9.349970000000001
H       8.808490000000001     -2.048350000000000      7.916490000000000
H       7.467270000000000     -5.438070000000000      4.927210000000000
H       7.901580000000000     -7.172170000000000      5.201000000000000
H       6.743310000000000     -6.344400000000000      6.310610000000000
Mg     -1.155380000000000     -9.939240000000000      9.799080000000000
C      -1.559040000000000     -8.060720000000000      7.211480000000000
C      -1.229470000000000     -6.762670000000000      9.182420000000000
O      -1.844030000000000     -7.888140000000000      8.587619999999999
C      -0.074980000000000     -8.255890000000001      6.898730000000000
C      -1.858000000000000     -5.454420000000000      8.722600000000000
H      -2.068800000000000     -8.996380000000000      6.908820000000000
H      -2.016080000000000     -7.263750000000000      6.591630000000000
H      -1.401450000000000     -6.850140000000000     10.277200000000001
H      -0.127010000000000     -6.760520000000000      9.064310000000001
H      -2.956350000000000     -5.492640000000000      8.881470000000000
H      -1.433130000000000     -4.615660000000000      9.311930000000000
H      -1.640940000000000     -5.273920000000000      7.650740000000000
H       0.363020000000000     -9.022390000000000      7.567150000000000
H       0.036990000000000     -8.588600000000000      5.845740000000000
H       0.481870000000000     -7.306660000000000      7.015900000000000
H       1.411200000000000    -10.411899999999999     10.153870000000000
C       0.682780000000000     -9.614089999999999     12.043699999999999
C       0.772880000000000     -9.586760000000000     10.530640000000000
C       0.009750000000000    -10.907750000000000     12.514510000000000
H       1.711760000000000     -9.532220000000001     12.449550000000000
H       0.078570000000000     -8.747360000000000     12.392799999999999
H      -1.046810000000000    -10.923430000000000     12.170660000000000
H       0.529920000000000    -11.791130000000001     12.086770000000000
C       0.046630000000000    -11.016510000000000     14.033370000000000
H       1.162110000000000     -8.612660000000000     10.170590000000001
H       1.102800000000000    -11.050770000000000     14.376510000000000
H      -0.463840000000000    -10.148630000000001     14.501770000000000
H      -0.461100000000000    -11.950410000000000     14.353610000000000
C      -3.880740000000000    -11.257569999999999     12.224950000000000
C      -3.730580000000000     -9.912750000000001     11.941929999999999
C      -3.681620000000000     -9.802220000000000     10.565930000000000
C      -3.781690000000000    -11.036210000000001     10.084099999999999
N      -3.924540000000000    -11.948000000000000     11.143509999999999
C      -3.759560000000000    -11.436260000000001      8.630360000000000
N      -2.429520000000000    -11.224370000000000      8.030620000000001
C      -1.565560000000000    -12.417700000000000      7.848270000000000
H      -3.653320000000000     -9.104690000000000     12.659630000000000
H      -3.948630000000000    -11.694730000000000     13.209410000000000
H      -3.577700000000000     -8.891640000000001      9.998930000000000
H      -4.501810000000000    -10.815310000000000      8.085330000000001
H      -4.087400000000000    -12.485530000000001      8.544100000000000
C      -2.191030000000000    -13.396050000000001      6.832750000000000
C      -0.217010000000000    -11.943230000000000      7.272010000000000
C      -1.285180000000000    -13.132520000000000      9.187060000000001
H      -2.407340000000000    -12.868760000000000      5.879030000000000
H      -1.492260000000000    -14.233960000000000      6.621160000000000
H      -3.128570000000000    -13.850260000000000      7.205510000000000
H       0.298070000000000    -11.266980000000000      7.983740000000000
H       0.461240000000000    -12.804580000000000      7.081430000000000
H      -0.365690000000000    -11.400050000000000      6.313820000000000
H      -0.768880000000000    -12.450749999999999      9.895799999999999
H      -2.220140000000000    -13.490690000000001      9.659900000000000
H      -0.630230000000000    -14.016410000000000      9.024810000000000

-C 0
6-31g(d,p)
****
-H 0
6-31g(d,p)
****
-Mg 0
6-31g(d,p)
****
-N 0
6-31+g(d,p)
****
-Na 0
6-31g(d,p)
****
-O 0
6-31+g(d,p)
****


