%chk=lowest10_c1_a2_speciation0_speciationDFT0_speciationDFT0_rank02_E178.69.chk
%nprocshared=20
%mem=40GB
#p opt=loose PM7/gen scf=xqc 

lowest10_c1_a2_speciation0_speciationDFT0_speciationDFT0_rank02_E178.69 DFT input

0 1
Mg     -0.409430000000000      0.004980000000000      1.101200000000000
H      -3.262210000000000      0.734140000000000      1.889230000000000
C      -2.996460000000000      2.149240000000000      0.226450000000000
C      -2.484620000000000      1.372550000000000      1.425340000000000
C      -3.590300000000000      1.256320000000000     -0.873390000000000
H      -3.783580000000000      2.842550000000000      0.587600000000000
H      -2.167020000000000      2.753840000000000     -0.198970000000000
H      -4.435150000000000      0.656600000000000     -0.469920000000000
H      -3.986180000000000      1.933860000000000     -1.658050000000000
C      -2.575760000000000      0.319510000000000     -1.535690000000000
H      -2.039010000000000      2.059180000000000      2.178510000000000
H      -2.250750000000000     -0.477430000000000     -0.836880000000000
H      -3.053450000000000     -0.166130000000000     -2.414900000000000
H      -1.688320000000000      0.884190000000000     -1.892940000000000
C      -0.965130000000000     -3.066060000000000      0.502210000000000
C      -0.178390000000000     -4.036840000000000     -0.097340000000000
C       1.014690000000000     -3.426250000000000     -0.449950000000000
C       0.900150000000000     -2.110070000000000     -0.069900000000000
N      -0.292540000000000     -1.906290000000000      0.510010000000000
C       1.926610000000000     -1.007000000000000     -0.227080000000000
N       1.306950000000000      0.302970000000000      0.057310000000000
C       2.077380000000000      1.549970000000000     -0.101240000000000
H      -0.439670000000000     -5.072740000000000     -0.256910000000000
H      -1.960810000000000     -3.206340000000000      0.906280000000000
H       1.864750000000000     -3.883090000000000     -0.938440000000000
H       2.754120000000000     -1.214870000000000      0.482770000000000
H       2.297540000000000     -1.021820000000000     -1.267760000000000
C       2.424150000000000      1.753950000000000     -1.589300000000000
C       1.209610000000000      2.734430000000000      0.361720000000000
C       3.363350000000000      1.514360000000000      0.743730000000000
H       1.493400000000000      1.795150000000000     -2.197170000000000
H       2.986500000000000      2.699600000000000     -1.738670000000000
H       3.055550000000000      0.929170000000000     -1.975680000000000
H       0.947470000000000      2.637710000000000      1.436920000000000
H       1.753670000000000      3.695610000000000      0.221830000000000
H       0.268660000000000      2.784410000000000     -0.225470000000000
H       3.117020000000000      1.363350000000000      1.816540000000000
H       4.034570000000000      0.695590000000000      0.412410000000000
H       3.923080000000000      2.468970000000000      0.639370000000000
Na      3.154990000000000     -8.846740000000000      1.839370000000000
C       1.915600000000000    -11.137900000000000     -0.113600000000000
C       0.586860000000000    -10.867889999999999      1.749150000000000
O       1.908620000000000    -11.069419999999999      1.296360000000000
C       3.342080000000000    -11.361710000000000     -0.595720000000000
C       0.587450000000000    -10.780950000000001      3.268830000000000
H       1.298480000000000    -11.993460000000001     -0.471420000000000
H       1.553210000000000    -10.182610000000000     -0.557140000000000
H       0.174210000000000     -9.910990000000000      1.355500000000000
H      -0.063990000000000    -11.723649999999999      1.457670000000000
H       1.217480000000000     -9.929399999999999      3.603390000000000
H      -0.449170000000000    -10.625800000000000      3.636210000000000
H       0.985520000000000    -11.722120000000000      3.704690000000000
H       3.740380000000000    -12.313300000000000     -0.183830000000000
H       3.359250000000000    -11.416270000000001     -1.705000000000000
H       3.992730000000000    -10.523330000000000     -0.267830000000000
Na      2.460550000000000    -13.537210000000000      2.044480000000000
Mg      2.120820000000000     -6.330740000000000      6.173430000000000
H       1.215070000000000     -6.317270000000000      9.197229999999999
C       2.027030000000000     -4.287280000000000      9.051750000000000
C       2.021800000000000     -5.760510000000000      8.678860000000000
C       0.704580000000000     -3.582290000000000      8.719590000000000
H       2.210600000000000     -4.213130000000000     10.143900000000000
H       2.859630000000000     -3.777660000000000      8.521710000000001
H      -0.136200000000000     -4.077090000000000      9.252789999999999
H       0.782260000000000     -2.536330000000000      9.084180000000000
C       0.399160000000000     -3.536730000000000      7.220820000000000
H       3.008190000000000     -6.220740000000000      8.903280000000001
H       0.223290000000000     -4.555420000000000      6.820300000000000
H      -0.519730000000000     -2.934000000000000      7.054320000000000
H       1.235130000000000     -3.060680000000000      6.665030000000000
C      -0.735410000000000     -6.987480000000000      4.945930000000000
C      -1.208290000000000     -6.951830000000000      3.644380000000000
C      -0.158790000000000     -6.525830000000000      2.845280000000000
C       0.901060000000000     -6.298560000000000      3.694050000000000
N       0.548500000000000     -6.595380000000000      4.952340000000000
C       2.288990000000000     -5.802490000000000      3.336160000000000
N       3.029170000000000     -5.464020000000000      4.570220000000000
C       4.394630000000000     -4.913440000000000      4.509610000000000
H      -2.204350000000000     -7.210480000000000      3.312040000000000
H      -1.293740000000000     -7.283980000000000      5.824490000000000
H      -0.171350000000000     -6.385550000000000      1.774720000000000
H       2.803090000000000     -6.603950000000000      2.768870000000000
H       2.184950000000000     -4.896900000000000      2.709310000000000
C       4.365710000000000     -3.529440000000000      3.831460000000000
C       4.917480000000000     -4.739530000000000      5.947000000000000
C       5.337460000000000     -5.860920000000000      3.747020000000000
H       3.687990000000000     -2.844760000000000      4.387640000000000
H       5.380740000000000     -3.078790000000000      3.811050000000000
H       4.009000000000000     -3.598340000000000      2.783890000000000
H       4.961010000000000     -5.717270000000000      6.472890000000000
H       5.940620000000000     -4.301620000000000      5.941660000000000
H       4.255550000000000     -4.060900000000000      6.525370000000000
H       5.360380000000000     -6.858910000000000      4.234750000000000
H       5.011430000000000     -5.985370000000000      2.693980000000000
H       6.370310000000000     -5.450360000000000      3.731600000000000

-C 0
6-31g(d,p)
****
-H 0
6-31g(d,p)
****
-Mg 0
6-31g(d,p)
****
-N 0
6-31+g(d,p)
****
-Na 0
6-31g(d,p)
****
-O 0
6-31+g(d,p)
****


