%chk=lowest10_c1_a2_speciation0_speciationDFT0_speciationDFT96_rank01_E185.97.chk
%nprocshared=20
%mem=40GB
#p opt=loose PM7/gen scf=xqc 

lowest10_c1_a2_speciation0_speciationDFT0_speciationDFT96_rank01_E185.97 DFT input

0 1
Mg     -0.002290000000000      0.311000000000000     -0.382410000000000
C      -1.664230000000000     -2.694420000000000     -1.010710000000000
C       0.685470000000000     -2.940410000000000     -0.670620000000000
O      -0.462040000000000     -2.125030000000000     -0.526960000000000
C      -2.118840000000000     -3.921060000000000     -0.226440000000000
C       1.052270000000000     -3.230400000000000     -2.123650000000000
H      -2.448040000000000     -1.915850000000000     -0.888160000000000
H      -1.621500000000000     -2.907820000000000     -2.095680000000000
H       1.532290000000000     -2.365730000000000     -0.245860000000000
H       0.622010000000000     -3.860920000000000     -0.055780000000000
H       1.108320000000000     -2.284430000000000     -2.701050000000000
H       2.043880000000000     -3.728030000000000     -2.155240000000000
H       0.311880000000000     -3.910360000000000     -2.588720000000000
H      -2.177230000000000     -3.692310000000000      0.856660000000000
H      -3.126030000000000     -4.222710000000000     -0.583180000000000
H      -1.425300000000000     -4.768790000000000     -0.392030000000000
H      -2.350360000000000      0.648610000000000     -2.149840000000000
C      -0.909940000000000     -0.083130000000000     -3.637690000000000
C      -1.284430000000000      0.758500000000000     -2.437500000000000
C      -1.699840000000000      0.385650000000000     -4.846890000000000
H       0.177840000000000      0.012710000000000     -3.833640000000000
H      -1.134010000000000     -1.146150000000000     -3.423660000000000
H      -2.786380000000000      0.287500000000000     -4.632380000000000
H      -1.462560000000000      1.453890000000000     -5.043530000000000
C      -1.351250000000000     -0.443010000000000     -6.072650000000000
H      -0.990390000000000      1.821250000000000     -2.561680000000000
H      -0.269000000000000     -0.346780000000000     -6.304620000000000
H      -1.594500000000000     -1.512220000000000     -5.893530000000000
H      -1.941710000000000     -0.075970000000000     -6.936180000000000
C       0.265770000000000      2.143320000000000      4.116760000000000
C       1.247980000000000      3.010010000000000      3.689710000000000
C       2.018730000000000      2.319960000000000      2.766650000000000
C       1.481780000000000      1.107820000000000      2.653470000000000
N       0.385920000000000      1.012840000000000      3.525470000000000
C       1.948390000000000     -0.065630000000000      1.813360000000000
N       1.847950000000000      0.088400000000000      0.349950000000000
C       2.806330000000000      0.825320000000000     -0.486020000000000
H       1.391300000000000      4.027790000000000      4.030630000000000
H      -0.507800000000000      2.349650000000000      4.842160000000000
H       2.888460000000000      2.707470000000000      2.266440000000000
H       1.276280000000000     -0.913120000000000      2.069200000000000
H       2.963310000000000     -0.379670000000000      2.112610000000000
C       4.209130000000000      0.796540000000000      0.124480000000000
C       2.855470000000000      0.120400000000000     -1.856440000000000
C       2.313550000000000      2.266960000000000     -0.728640000000000
H       4.521820000000000     -0.259990000000000      0.275080000000000
H       4.935730000000000      1.295310000000000     -0.547170000000000
H       4.222680000000000      1.314040000000000      1.100860000000000
H       1.849730000000000      0.106580000000000     -2.322220000000000
H       3.545830000000000      0.643510000000000     -2.552950000000000
H       3.190270000000000     -0.933320000000000     -1.750760000000000
H       1.340340000000000      2.270920000000000     -1.268410000000000
H       2.163470000000000      2.823520000000000      0.206530000000000
H       3.046700000000000      2.826410000000000     -1.348030000000000
C      -2.203320000000000      1.438700000000000      1.581170000000000
C      -1.843680000000000     -0.831430000000000      2.114230000000000
O      -1.788580000000000      0.169020000000000      1.117160000000000
C      -1.357860000000000      2.535200000000000      0.929050000000000
C      -3.267460000000000     -1.297000000000000      2.341380000000000
H      -3.261160000000000      1.590790000000000      1.287120000000000
H      -2.113310000000000      1.555170000000000      2.682540000000000
H      -1.236430000000000     -1.692140000000000      1.770340000000000
H      -1.380840000000000     -0.525440000000000      3.068210000000000
H      -3.706450000000000     -1.645220000000000      1.383980000000000
H      -3.264840000000000     -2.129880000000000      3.072600000000000
H      -3.869740000000000     -0.459060000000000      2.746420000000000
H      -0.291130000000000      2.431780000000000      1.197230000000000
H      -1.433910000000000      2.494780000000000     -0.175940000000000
H      -1.704300000000000      3.531530000000000      1.272410000000000
Na      0.497810000000000     -6.091060000000000      5.038550000000000
C      -0.740160000000000     -8.380540000000000      3.085700000000000
C      -2.068860000000000     -8.111110000000000      4.948690000000000
O      -0.747070000000000     -8.312300000000000      4.495730000000000
C       0.686280000000000     -8.604419999999999      2.603370000000000
C      -2.068430000000000     -8.024390000000000      6.468480000000000
H      -1.357250000000000     -9.236129999999999      2.727870000000000
H      -1.102560000000000     -7.425180000000000      2.642210000000000
H      -2.481670000000000     -7.154240000000000      4.555160000000000
H      -2.719560000000000     -8.966960000000000      4.657150000000000
H      -1.438610000000000     -7.172820000000000      6.803350000000000
H      -3.105110000000000     -7.869420000000000      6.835790000000000
H      -1.670390000000000     -8.965560000000000      6.904400000000000
H       1.084620000000000     -9.556089999999999      3.015140000000000
H       0.703310000000000     -8.658950000000001      1.494080000000000
H       1.337090000000000     -7.766130000000000      2.931170000000000
Na     -0.195760000000000    -10.778510000000001      5.243560000000000
Mg     -0.535300000000000     -3.574080000000000      9.373270000000000
H      -1.439770000000000     -3.562150000000000     12.393570000000000
C      -0.628680000000000     -1.531370000000000     12.250240000000000
C      -0.632940000000000     -3.004330000000000     11.876569999999999
C      -1.951340000000000     -0.826460000000000     11.918620000000001
H      -0.445210000000000     -1.457850000000000     13.342430000000000
H       0.203750000000000     -1.021050000000000     11.720599999999999
H      -2.792100000000000     -1.321500000000000     12.451630000000000
H      -1.873350000000000      0.219190000000000     12.283970000000000
C      -2.257350000000000     -0.779460000000000     10.420000000000000
H       0.353670000000000     -3.464150000000000     12.101070000000000
H      -2.435640000000000     -1.797510000000000     10.018900000000000
H      -3.175110000000000     -0.174700000000000     10.254470000000000
H      -1.420850000000000     -0.304680000000000      9.863939999999999
C      -3.391920000000000     -4.230050000000000      8.145110000000001
C      -3.863840000000000     -4.194060000000000      6.843220000000000
C      -2.813800000000000     -3.768230000000000      6.044150000000000
C      -1.754350000000000     -3.542070000000000      6.894170000000000
N      -2.107420000000000     -3.838430000000000      8.151920000000000
C      -0.365680000000000     -3.047160000000000      6.536580000000000
N       0.373610000000000     -2.706990000000000      7.770640000000000
C       1.738990000000000     -2.155990000000000      7.709140000000000
H      -4.860100000000000     -4.452220000000000      6.510720000000000
H      -3.950680000000000     -4.526090000000000      9.023460000000000
H      -2.825310000000000     -3.626860000000000      4.973160000000000
H       0.148240000000000     -3.850090000000000      5.971390000000000
H      -0.468370000000000     -2.142670000000000      5.908240000000000
C       1.709340000000000     -0.772100000000000      7.030170000000000
C       2.262630000000000     -1.981740000000000      9.146330000000001
C       2.681620000000000     -3.103430000000000      6.946340000000000
H       1.031950000000000     -0.087320000000000      7.586630000000000
H       2.724200000000000     -0.321240000000000      7.008740000000000
H       1.352120000000000     -0.841100000000000      5.982740000000000
H       2.307070000000000     -2.959420000000000      9.672359999999999
H       3.285560000000000     -1.543360000000000      9.140409999999999
H       1.600780000000000     -1.303500000000000      9.725239999999999
H       2.704910000000000     -4.101340000000000      7.434290000000000
H       2.355150000000000     -3.228020000000000      5.893440000000000
H       3.714370000000000     -2.692700000000000      6.930460000000000

-C 0
6-31g(d,p)
****
-H 0
6-31g(d,p)
****
-Mg 0
6-31g(d,p)
****
-N 0
6-31+g(d,p)
****
-Na 0
6-31g(d,p)
****
-O 0
6-31+g(d,p)
****


