%chk=lowest10_c1_a2_speciation0_speciationDFT0_speciationDFT37b_rank09_E164.68.chk
%nprocshared=20
%mem=40GB
#p opt=loose PM7/gen scf=xqc 

lowest10_c1_a2_speciation0_speciationDFT0_speciationDFT37b_rank09_E164.68 DFT input

0 1
Mg     -0.154510000000000     -0.421800000000000      0.355550000000000
C      -0.420060000000000      1.756450000000000      2.664730000000000
C      -2.439910000000000      0.512900000000000      2.414270000000000
O      -1.350460000000000      1.154210000000000      1.786340000000000
C       0.235650000000000      0.785220000000000      3.645510000000000
C      -3.411190000000000      1.513380000000000      3.018610000000000
H       0.389890000000000      2.146290000000000      2.022400000000000
H      -0.841720000000000      2.649290000000000      3.167410000000000
H      -2.978960000000000     -0.040180000000000      1.614150000000000
H      -2.126900000000000     -0.262010000000000      3.144020000000000
H      -3.675700000000000      2.278510000000000      2.258560000000000
H      -4.331570000000000      0.985420000000000      3.342870000000000
H      -2.951960000000000      2.003960000000000      3.900070000000000
H       0.565980000000000     -0.134360000000000      3.122880000000000
H       1.120790000000000      1.271750000000000      4.106100000000000
H      -0.472340000000000      0.517360000000000      4.453230000000000
H       0.645810000000000     -2.640810000000000      1.434260000000000
C      -1.164460000000000     -3.132050000000000      0.320690000000000
C      -0.381680000000000     -2.256470000000000      1.277670000000000
C      -0.509980000000000     -3.138420000000000     -1.065810000000000
H      -1.192500000000000     -4.152670000000000      0.750440000000000
H      -2.201990000000000     -2.740620000000000      0.223590000000000
H      -0.591200000000000     -2.129090000000000     -1.520480000000000
H       0.566880000000000     -3.396800000000000     -0.986010000000000
C      -1.181910000000000     -4.159020000000000     -1.975990000000000
H      -0.903550000000000     -2.150090000000000      2.249640000000000
H      -1.053970000000000     -5.175500000000000     -1.546070000000000
H      -2.265230000000000     -3.939750000000000     -2.082740000000000
H      -0.708180000000000     -4.137550000000000     -2.979870000000000
C      -0.937810000000000     -0.082720000000000     -3.347080000000000
C      -1.876450000000000      0.202990000000000     -2.374010000000000
C      -1.262570000000000      1.046030000000000     -1.468480000000000
C      -0.012600000000000      1.210560000000000     -1.893870000000000
N       0.173840000000000      0.509340000000000     -3.095090000000000
C       1.076730000000000      2.007450000000000     -1.218680000000000
N       1.533230000000000      1.354990000000000      0.021210000000000
C       2.811890000000000      0.603230000000000     -0.014680000000000
H      -2.886390000000000     -0.186540000000000     -2.314990000000000
H      -1.084000000000000     -0.721630000000000     -4.203190000000000
H      -1.711190000000000      1.465180000000000     -0.583120000000000
H       0.677730000000000      3.013330000000000     -0.967890000000000
H       1.904580000000000      2.151870000000000     -1.931050000000000
C       3.989600000000000      1.546840000000000     -0.325980000000000
C       3.041130000000000      0.004620000000000      1.388310000000000
C       2.771660000000000     -0.557470000000000     -1.031580000000000
H       3.984500000000000      2.406830000000000      0.376910000000000
H       4.955800000000000      1.008110000000000     -0.219370000000000
H       3.953820000000000      1.931480000000000     -1.362950000000000
H       2.241260000000000     -0.721070000000000      1.641400000000000
H       4.011550000000000     -0.536600000000000      1.443770000000000
H       3.041700000000000      0.802990000000000      2.161320000000000
H       2.001380000000000     -1.306370000000000     -0.749850000000000
H       2.550120000000000     -0.191770000000000     -2.052560000000000
H       3.754850000000000     -1.076250000000000     -1.067670000000000
Na      3.289110000000000    -10.092420000000001      6.759690000000000
C       2.396310000000000    -13.158880000000000      7.385450000000000
C       0.954710000000000    -11.679550000000001      8.406230000000001
O       2.311390000000000    -12.018900000000000      8.213740000000000
C       3.860760000000000    -13.524070000000000      7.186640000000000
C       0.869690000000000    -10.441870000000000      9.288300000000000
H       1.890600000000000    -14.031000000000001      7.859260000000000
H       1.958900000000000    -12.951560000000001      6.382300000000000
H       0.464710000000000    -11.437659999999999      7.435520000000000
H       0.412230000000000    -12.503670000000000      8.923349999999999
H       1.389650000000000     -9.588870000000000      8.802450000000000
H      -0.194650000000000    -10.168070000000000      9.449090000000000
H       1.341360000000000    -10.642580000000001     10.273930000000000
H       4.335130000000000    -13.750090000000000      8.165260000000000
H       3.939090000000000    -14.420130000000000      6.534920000000000
H       4.403130000000000    -12.682460000000001      6.705720000000000
Na      3.078910000000000    -12.903680000000000     10.574350000000001
Mg      1.782020000000000     -5.267880000000000      7.561550000000000
H       0.730450000000000     -3.000770000000000      9.482920000000000
C       1.331480000000000     -1.772800000000000      7.770280000000000
C       1.499570000000000     -2.974860000000000      8.684600000000000
C      -0.039110000000000     -1.733300000000000      7.080630000000000
H       1.451060000000000     -0.857420000000000      8.386520000000001
H       2.131560000000000     -1.782670000000000      6.999790000000000
H      -0.849420000000000     -1.712760000000000      7.841500000000000
H      -0.088760000000000     -0.793510000000000      6.493370000000000
C      -0.272460000000000     -2.901660000000000      6.120360000000000
H       2.516150000000000     -2.981260000000000      9.133800000000001
H      -0.322750000000000     -3.862890000000000      6.670800000000000
H      -1.238830000000000     -2.751880000000000      5.591990000000000
H       0.536580000000000     -2.952590000000000      5.360610000000000
C      -0.925180000000000     -6.928270000000000      7.447580000000000
C      -1.332590000000000     -7.968780000000000      6.628820000000000
C      -0.294280000000000     -8.217820000000000      5.744140000000000
C       0.692270000000000     -7.305730000000000      6.047260000000000
N       0.309460000000000     -6.546710000000000      7.082460000000000
C       2.038140000000000     -7.132800000000000      5.369030000000000
N       2.674890000000000     -5.884070000000000      5.838540000000000
C       3.976720000000000     -5.448580000000000      5.302390000000000
H      -2.278710000000000     -8.491050000000000      6.671950000000000
H      -1.493260000000000     -6.485680000000000      8.255450000000000
H      -0.267730000000000     -8.965210000000001      4.963300000000000
H       2.660880000000000     -8.016040000000000      5.614920000000000
H       1.873330000000000     -7.073050000000000      4.277140000000000
C       3.836990000000000     -5.123820000000000      3.801970000000000
C       4.406370000000000     -4.166810000000000      6.038310000000000
C       5.050280000000000     -6.530470000000000      5.515770000000000
H       3.064640000000000     -4.337610000000000      3.650220000000000
H       4.799160000000000     -4.755880000000000      3.386450000000000
H       3.542230000000000     -6.019760000000000      3.219290000000000
H       4.526030000000000     -4.357010000000000      7.126340000000000
H       5.376940000000000     -3.793850000000000      5.641400000000000
H       3.649020000000000     -3.365720000000000      5.904470000000000
H       5.153190000000000     -6.765430000000000      6.596760000000000
H       4.791880000000000     -7.461720000000000      4.971020000000000
H       6.034020000000000     -6.181300000000000      5.133830000000000

-C 0
6-31g(d,p)
****
-H 0
6-31g(d,p)
****
-Mg 0
6-31g(d,p)
****
-N 0
6-31+g(d,p)
****
-Na 0
6-31g(d,p)
****
-O 0
6-31+g(d,p)
****


