%chk=lowest10_c1_a1_speciation0_speciationDFT38_rank06_E98.21.chk
%nprocshared=20
%mem=40GB
#p opt=loose PM7/gen scf=xqc 

lowest10_c1_a1_speciation0_speciationDFT38_rank06_E98.21 DFT input

0 1
Na     -0.123910000000000      1.982690000000000      0.915950000000000
C      -0.226010000000000     -1.432100000000000      0.516270000000000
C       0.354270000000000     -0.426520000000000     -1.487680000000000
O       0.017310000000000     -0.207670000000000     -0.137460000000000
C      -0.580550000000000     -1.133350000000000      1.968060000000000
C       0.605320000000000      0.925820000000000     -2.143260000000000
H      -1.086810000000000     -1.965890000000000      0.053270000000000
H       0.682850000000000     -2.075850000000000      0.508090000000000
H       1.289120000000000     -1.024640000000000     -1.570040000000000
H      -0.481370000000000     -0.924100000000000     -2.030600000000000
H       1.438130000000000      1.449700000000000     -1.626510000000000
H       0.874180000000000      0.791820000000000     -3.211950000000000
H      -0.307690000000000      1.555920000000000     -2.078430000000000
H      -1.486510000000000     -0.491210000000000      2.013890000000000
H      -0.780600000000000     -2.076160000000000      2.518620000000000
H       0.259450000000000     -0.599560000000000      2.462710000000000
Mg     -0.111670000000000     -7.759920000000000     -2.602980000000000
C       3.100670000000000     -7.924990000000000     -3.329380000000000
C       2.037910000000000     -6.252520000000000     -4.671580000000000
O       1.893620000000000     -7.371650000000000     -3.823880000000000
C       4.082900000000000     -6.921160000000000     -2.721340000000000
C       2.679260000000000     -6.611420000000000     -6.003120000000000
H       2.806930000000000     -8.605140000000000     -2.505900000000000
H       3.589110000000000     -8.557530000000000     -4.097850000000000
H       1.017200000000000     -5.881600000000000     -4.885080000000000
H       2.543460000000000     -5.404900000000000     -4.168410000000000
H       2.651200000000000     -5.724310000000000     -6.669140000000000
H       2.122530000000000     -7.443320000000000     -6.482060000000000
H       3.733610000000000     -6.913980000000000     -5.850590000000000
H       3.580780000000000     -6.291320000000000     -1.968400000000000
H       4.528690000000000     -6.279560000000000     -3.507710000000000
H       4.901190000000000     -7.468670000000000     -2.212420000000000
H      -1.012700000000000     -9.268789999999999     -4.611190000000000
C      -2.537210000000000     -7.700150000000000     -4.451080000000000
C      -1.564020000000000     -8.713930000000000     -3.825660000000000
C      -1.879480000000000     -6.577890000000000     -5.278600000000000
H      -3.252290000000000     -8.253590000000001     -5.094520000000000
H      -3.106410000000000     -7.211790000000000     -3.631300000000000
H      -2.684910000000000     -5.919010000000000     -5.674840000000000
H      -1.236810000000000     -5.955890000000000     -4.623510000000000
C      -1.064640000000000     -7.085710000000000     -6.468040000000000
H      -2.117470000000000     -9.431340000000001     -3.189790000000000
H      -0.217920000000000     -7.708720000000000     -6.121460000000000
H      -1.702530000000000     -7.681740000000000     -7.152900000000000
H      -0.648370000000000     -6.222130000000000     -7.032060000000000
C       0.934770000000000     -3.980850000000000     -2.252870000000000
C      -0.375530000000000     -4.394910000000000     -2.227100000000000
C      -0.449170000000000     -5.495690000000000     -1.390850000000000
C       0.785840000000000     -5.756530000000000     -0.942290000000000
N       1.707360000000000     -4.813230000000000     -1.426980000000000
C       1.172090000000000     -6.926530000000000     -0.072950000000000
N       0.845690000000000     -8.172079999999999     -0.776270000000000
C       0.996020000000000     -9.463440000000000     -0.060850000000000
H      -1.187850000000000     -3.947470000000000     -2.785890000000000
H       1.328630000000000     -3.156470000000000     -2.827480000000000
H      -1.336900000000000     -6.076840000000000     -1.182970000000000
H       0.632900000000000     -6.849620000000000      0.889180000000000
H       2.267410000000000     -6.878170000000000      0.106510000000000
C      -0.023350000000000     -9.570050000000000      1.090150000000000
C       0.742820000000000    -10.610290000000001     -1.052870000000000
C       2.427810000000000     -9.616210000000001      0.506860000000000
H      -1.059450000000000     -9.492319999999999      0.699980000000000
H       0.085740000000000    -10.542949999999999      1.618310000000000
H       0.132620000000000     -8.774960000000000      1.846780000000000
H       1.483590000000000    -10.589160000000000     -1.879780000000000
H       0.824710000000000    -11.596380000000000     -0.542040000000000
H      -0.274530000000000    -10.528290000000000     -1.489400000000000
H       3.183780000000000     -9.546180000000000     -0.304010000000000
H       2.651380000000000     -8.835200000000000      1.263020000000000
H       2.551640000000000    -10.602290000000000      1.006650000000000

-C 0
6-31g(d,p)
****
-H 0
6-31g(d,p)
****
-Mg 0
6-31g(d,p)
****
-N 0
6-31+g(d,p)
****
-Na 0
6-31g(d,p)
****
-O 0
6-31+g(d,p)
****


