%chk=lowest10_c1_a1_speciation3_speciationDFT36_rank09_E137.60.chk
%nprocshared=20
%mem=40GB
#p opt=loose PM7/gen scf=xqc 

lowest10_c1_a1_speciation3_speciationDFT36_rank09_E137.60 DFT input

0 1
Na     -0.349810000000000     -0.036870000000000      0.118590000000000
C       0.215810000000000      2.999980000000000      0.667100000000000
C      -2.005860000000000      2.535660000000000      1.282590000000000
O      -0.880810000000000      2.117960000000000      0.540340000000000
C       1.101370000000000      2.621010000000000      1.850760000000000
C      -2.909880000000000      3.409310000000000      0.422280000000000
H       0.824100000000000      2.907200000000000     -0.256250000000000
H      -0.097050000000000      4.064600000000000      0.725310000000000
H      -2.573160000000000      1.625650000000000      1.576310000000000
H      -1.732820000000000      3.048480000000000      2.231440000000000
H      -3.214240000000000      2.857790000000000     -0.493100000000000
H      -3.818620000000000      3.683990000000000      0.996450000000000
H      -2.378710000000000      4.336330000000000      0.124460000000000
H       1.449570000000000      1.571950000000000      1.754460000000000
H       1.988990000000000      3.287920000000000      1.872360000000000
H       0.549160000000000      2.731540000000000      2.805280000000000
C      -0.972400000000000     -3.075270000000000     -0.639520000000000
C      -2.743590000000000     -1.694020000000000     -1.306000000000000
O      -1.603680000000000     -1.822520000000000     -0.488210000000000
C       0.008680000000000     -3.073490000000000     -1.810400000000000
C      -3.255680000000000     -0.261690000000000     -1.187000000000000
H      -0.384950000000000     -3.254910000000000      0.285750000000000
H      -1.700280000000000     -3.912640000000000     -0.713630000000000
H      -2.503860000000000     -1.877860000000000     -2.375130000000000
H      -3.544750000000000     -2.383440000000000     -0.963180000000000
H      -2.476780000000000      0.456700000000000     -1.522200000000000
H      -4.160850000000000     -0.123030000000000     -1.813980000000000
H      -3.512670000000000     -0.035740000000000     -0.130370000000000
H       0.735780000000000     -2.242520000000000     -1.702020000000000
H       0.567290000000000     -4.032720000000000     -1.825160000000000
H      -0.524920000000000     -2.964190000000000     -2.775530000000000
C       0.185320000000000     -1.613050000000000      2.804450000000000
C       2.296540000000000     -1.348110000000000      1.805350000000000
O       0.902180000000000     -1.175820000000000      1.667530000000000
C      -0.021710000000000     -0.467730000000000      3.790710000000000
C       2.726730000000000     -2.700480000000000      1.248850000000000
H      -0.813770000000000     -1.956010000000000      2.459700000000000
H       0.659460000000000     -2.488170000000000      3.302030000000000
H       2.792440000000000     -0.552790000000000      1.211010000000000
H       2.648010000000000     -1.213050000000000      2.852400000000000
H       2.411770000000000     -2.797460000000000      0.188350000000000
H       3.831850000000000     -2.788660000000000      1.302110000000000
H       2.271220000000000     -3.523250000000000      1.836850000000000
H      -0.554630000000000      0.372750000000000      3.297080000000000
H      -0.633850000000000     -0.822760000000000      4.646470000000000
H       0.953170000000000     -0.104360000000000      4.175680000000000
C       2.473550000000000      0.227120000000000     -1.828650000000000
C       0.518580000000000      1.226870000000000     -2.666890000000000
O       1.109410000000000      0.512440000000000     -1.599260000000000
C       3.361080000000000      1.340170000000000     -1.281420000000000
C      -0.076510000000000      0.274080000000000     -3.697520000000000
H       2.714800000000000     -0.709240000000000     -1.283570000000000
H       2.698130000000000      0.025880000000000     -2.899340000000000
H      -0.308920000000000      1.837270000000000     -2.245960000000000
H       1.220610000000000      1.944830000000000     -3.145630000000000
H      -0.816380000000000     -0.394860000000000     -3.215410000000000
H      -0.590020000000000      0.858090000000000     -4.489760000000000
H       0.717070000000000     -0.344040000000000     -4.163870000000000
H       3.162880000000000      1.495570000000000     -0.200150000000000
H       4.427250000000000      1.059670000000000     -1.411050000000000
H       3.172530000000000      2.289740000000000     -1.822470000000000
Mg     -2.027030000000000      5.592860000000000      6.986290000000000
C      -0.766600000000000      5.236650000000000     10.505599999999999
C      -3.071510000000000      5.287110000000000     10.566360000000000
O      -1.922010000000000      5.845790000000000      9.962610000000000
C       0.452970000000000      6.095050000000000     10.206090000000000
C      -4.323450000000000      5.870250000000000      9.924469999999999
H      -0.826180000000000      5.142800000000000     11.612830000000001
H      -0.615420000000000      4.232470000000000     10.058460000000000
H      -3.095360000000000      4.184200000000000     10.442030000000001
H      -3.100640000000000      5.531180000000000     11.649260000000000
H      -4.359320000000000      5.626370000000000      8.843520000000000
H      -5.226400000000000      5.446060000000000     10.412490000000000
H      -4.333350000000000      6.973220000000000     10.047050000000000
H       0.326910000000000      7.107200000000000     10.640710000000000
H       1.362380000000000      5.618460000000000     10.627250000000000
H       0.597720000000000      6.204260000000000      9.122150000000000
H      -4.012980000000000      7.969830000000000      7.720370000000000
C      -4.165640000000000      7.211130000000000      5.655350000000000
C      -3.369260000000000      7.674460000000000      6.869280000000000
C      -5.076160000000000      6.021890000000000      5.991320000000000
H      -4.775090000000000      8.068250000000001      5.304960000000000
H      -3.459930000000000      6.910320000000000      4.848900000000000
H      -4.466050000000000      5.138770000000000      6.284410000000000
H      -5.744350000000000      6.288000000000000      6.837850000000000
C      -5.944550000000000      5.649880000000000      4.791540000000000
H      -2.653300000000000      8.478759999999999      6.603930000000000
H      -6.575520000000000      6.516580000000000      4.499200000000000
H      -5.312950000000000      5.351890000000000      3.927760000000000
H      -6.612230000000000      4.802580000000000      5.055470000000000
C      -3.240730000000000      2.941530000000000      8.211460000000001
C      -2.640940000000000      1.740960000000000      8.548320000000000
C      -1.299630000000000      1.856840000000000      8.213780000000000
C      -1.134680000000000      3.123140000000000      7.703140000000000
N      -2.309580000000000      3.767650000000000      7.718750000000000
C       0.131630000000000      3.758010000000000      7.157100000000000
N      -0.033870000000000      5.221940000000000      7.002630000000000
C       0.903020000000000      5.968390000000000      6.139160000000000
H      -3.126590000000000      0.881150000000000      8.985830000000000
H      -4.287920000000000      3.194330000000000      8.337930000000000
H      -0.528830000000000      1.109040000000000      8.337960000000001
H       0.968640000000000      3.573900000000000      7.860290000000000
H       0.338810000000000      3.267740000000000      6.185890000000000
C       0.650800000000000      5.659580000000000      4.652730000000000
C       0.682830000000000      7.478320000000000      6.364950000000000
C       2.357410000000000      5.625990000000000      6.519050000000000
H      -0.381030000000000      5.953290000000000      4.362560000000000
H       1.367260000000000      6.225320000000000      4.017510000000000
H       0.788110000000000      4.584070000000000      4.432640000000000
H       0.864210000000000      7.760370000000000      7.423230000000000
H       1.375020000000000      8.076900000000000      5.732100000000000
H      -0.356700000000000      7.766980000000000      6.104340000000000
H       2.531680000000000      5.837060000000000      7.596820000000000
H       2.573510000000000      4.553570000000000      6.333370000000000
H       3.075530000000000      6.227390000000000      5.922940000000000

-C 0
6-31g(d,p)
****
-H 0
6-31g(d,p)
****
-Mg 0
6-31g(d,p)
****
-N 0
6-31+g(d,p)
****
-Na 0
6-31g(d,p)
****
-O 0
6-31+g(d,p)
****


