%chk=lowest10_c1_a1_speciation0_speciationDFT0_rank07_E97.32.chk
%nprocshared=20
%mem=40GB
#p opt=loose PM7/gen scf=xqc 

lowest10_c1_a1_speciation0_speciationDFT0_rank07_E97.32 DFT input

0 1
Na     -0.121190000000000      1.976740000000000     -0.913870000000000
C      -0.222280000000000     -1.422120000000000     -0.520700000000000
C       0.356450000000000     -0.425270000000000      1.487050000000000
O       0.019480000000000     -0.200760000000000      0.137110000000000
C      -0.582230000000000     -1.125970000000000     -1.970920000000000
C       0.605180000000000      0.926530000000000      2.145130000000000
H       0.690190000000000     -2.060010000000000     -0.517410000000000
H      -1.082650000000000     -1.955150000000000     -0.058010000000000
H      -0.478980000000000     -0.924590000000000      2.028680000000000
H       1.289920000000000     -1.027330000000000      1.569820000000000
H      -0.309450000000000      1.554580000000000      2.080550000000000
H       0.874110000000000      0.792980000000000      3.213720000000000
H       1.436160000000000      1.453330000000000      1.628420000000000
H       0.254290000000000     -0.590170000000000     -2.468570000000000
H      -0.779760000000000     -2.071230000000000     -2.518930000000000
H      -1.491690000000000     -0.488960000000000     -2.014280000000000
Mg      3.793370000000000     -5.876530000000000     -0.287990000000000
H       4.052230000000000     -6.883430000000000     -3.151080000000000
C       4.624420000000000     -8.723710000000001     -2.090540000000000
C       4.599220000000000     -7.214570000000000     -2.246370000000000
C       3.226370000000000     -9.359209999999999     -2.055160000000000
H       5.184430000000000     -9.140110000000000     -2.952880000000000
H       5.171120000000000     -8.986260000000000     -1.159570000000000
H       2.670530000000000     -9.122360000000000     -2.988520000000000
H       3.374600000000000    -10.457870000000000     -2.006050000000000
C       2.381640000000000     -8.948900000000000     -0.845330000000000
H       5.631420000000000     -6.800070000000000     -2.237010000000000
H       2.073990000000000     -7.886020000000000     -0.913530000000000
H       1.461630000000000     -9.573370000000001     -0.819120000000000
H       2.938060000000000     -9.114000000000001      0.101870000000000
C       0.733390000000000     -5.039500000000000     -0.468870000000000
C      -0.170750000000000     -4.665510000000000      0.512680000000000
C       0.504730000000000     -4.713960000000000      1.721610000000000
C       1.781170000000000     -5.134010000000000      1.431890000000000
N       1.910260000000000     -5.318710000000000      0.109280000000000
C       2.926130000000000     -5.354970000000000      2.398800000000000
N       4.029040000000000     -6.064570000000000      1.720140000000000
C       5.232570000000000     -6.473530000000000      2.466920000000000
H      -1.202630000000000     -4.381060000000000      0.365630000000000
H       0.537850000000000     -5.096570000000000     -1.533180000000000
H       0.110640000000000     -4.481980000000000      2.701780000000000
H       3.259640000000000     -4.359500000000000      2.758790000000000
H       2.556630000000000     -5.966480000000000      3.241470000000000
C       4.851050000000000     -7.541300000000000      3.511170000000000
C       6.241980000000000     -7.094340000000000      1.484150000000000
C       5.888910000000000     -5.265210000000000      3.158260000000000
H       4.390990000000000     -8.420840000000000      3.008940000000000
H       5.745630000000000     -7.882460000000000      4.073370000000000
H       4.127040000000000     -7.145260000000000      4.250870000000000
H       6.558500000000000     -6.353030000000000      0.719670000000000
H       7.149580000000000     -7.444440000000000      2.025500000000000
H       5.795670000000000     -7.966990000000000      0.962660000000000
H       6.161180000000000     -4.491760000000000      2.408560000000000
H       5.203890000000000     -4.813720000000000      3.905010000000000
H       6.810240000000000     -5.578360000000000      3.695380000000000

-C 0
6-31g(d,p)
****
-H 0
6-31g(d,p)
****
-Mg 0
6-31g(d,p)
****
-N 0
6-31+g(d,p)
****
-Na 0
6-31g(d,p)
****
-O 0
6-31+g(d,p)
****


