%chk=lowest10_c1_a1_speciation0_speciationDFT1_rank04_E97.45.chk
%nprocshared=20
%mem=40GB
#p opt=loose PM7/gen scf=xqc 

lowest10_c1_a1_speciation0_speciationDFT1_rank04_E97.45 DFT input

0 1
Na      1.702160000000000     -0.764250000000000     -0.912850000000000
C      -1.195390000000000      1.025740000000000     -0.518940000000000
C      -0.615310000000000      0.024100000000000      1.488380000000000
O      -0.256410000000000      0.205630000000000      0.137900000000000
C      -0.755320000000000      1.187690000000000     -1.969280000000000
C       0.429880000000000     -0.870730000000000      2.143900000000000
H      -2.205010000000000      0.555720000000000     -0.515360000000000
H      -1.232710000000000      2.037630000000000     -0.055290000000000
H      -0.626840000000000      0.996330000000000      2.031110000000000
H      -1.603220000000000     -0.480660000000000      1.572410000000000
H       1.431840000000000     -0.393980000000000      2.079690000000000
H       0.179860000000000     -1.037750000000000      3.212460000000000
H       0.468510000000000     -1.853500000000000      1.626550000000000
H      -0.708070000000000      0.194570000000000     -2.465760000000000
H      -1.472610000000000      1.830660000000000     -2.521010000000000
H       0.251820000000000      1.655670000000000     -2.011480000000000
Mg     -4.693520000000000     -5.622930000000000     -1.882420000000000
H      -2.203400000000000     -4.548150000000000     -0.608820000000000
C      -3.552910000000000     -4.520790000000000      1.118870000000000
C      -3.254030000000000     -4.303940000000000     -0.350770000000000
C      -2.702410000000000     -3.567480000000000      1.948230000000000
H      -4.633250000000000     -4.332220000000000      1.303030000000000
H      -3.327460000000000     -5.577460000000000      1.383090000000000
H      -1.627420000000000     -3.761410000000000      1.740620000000000
H      -2.944180000000000     -2.522220000000000      1.658850000000000
C      -2.964090000000000     -3.745120000000000      3.435410000000000
H      -3.536710000000000     -3.284960000000000     -0.688660000000000
H      -4.030780000000000     -3.536940000000000      3.664910000000000
H      -2.715310000000000     -4.781650000000000      3.747440000000000
H      -2.327310000000000     -3.034280000000000      4.001400000000000
C      -3.448500000000000     -6.168130000000000     -4.748840000000000
C      -3.845360000000000     -7.016030000000000     -5.770660000000000
C      -4.980130000000000     -7.676900000000000     -5.326480000000000
C      -5.221170000000000     -7.216060000000000     -4.053850000000000
N      -4.295550000000000     -6.305430000000000     -3.718060000000000
C      -6.351400000000000     -7.615090000000000     -3.125010000000000
N      -6.140970000000000     -7.035920000000000     -1.783060000000000
C      -7.084870000000000     -7.310800000000000     -0.684570000000000
H      -3.367550000000000     -7.137210000000000     -6.732410000000000
H      -2.599260000000000     -5.495170000000000     -4.766600000000000
H      -5.561200000000000     -8.414270000000000     -5.863090000000000
H      -6.368870000000000     -8.717610000000001     -3.052370000000000
H      -7.295250000000000     -7.238330000000000     -3.569250000000000
C      -7.033420000000000     -8.807520000000000     -0.324040000000000
C      -6.666200000000000     -6.496680000000000      0.553360000000000
C      -8.515990000000000     -6.906940000000000     -1.081300000000000
H      -6.002170000000000     -9.093240000000000     -0.020510000000000
H      -7.725420000000000     -9.035860000000000      0.513600000000000
H      -7.331340000000000     -9.440099999999999     -1.183960000000000
H      -6.705130000000000     -5.407040000000000      0.340990000000000
H      -7.348360000000000     -6.706670000000000      1.407810000000000
H      -5.633270000000000     -6.758910000000000      0.867030000000000
H      -8.551489999999999     -5.829390000000000     -1.351110000000000
H      -8.872920000000001     -7.503290000000000     -1.945660000000000
H      -9.218380000000000     -7.085180000000000     -0.238980000000000

-C 0
6-31g(d,p)
****
-H 0
6-31g(d,p)
****
-Mg 0
6-31g(d,p)
****
-N 0
6-31+g(d,p)
****
-Na 0
6-31g(d,p)
****
-O 0
6-31+g(d,p)
****


