%chk=lowest10_c1_a1_speciation3_speciationDFT36_rank01_E134.18.chk
%nprocshared=20
%mem=40GB
#p opt=loose PM7/gen scf=xqc 

lowest10_c1_a1_speciation3_speciationDFT36_rank01_E134.18 DFT input

0 1
Na     -0.117740000000000     -0.118610000000000     -0.369530000000000
C      -0.007280000000000     -2.902550000000000      1.118400000000000
C      -0.834420000000000     -3.237720000000000     -1.054850000000000
O      -0.605330000000000     -2.310340000000000     -0.016150000000000
C       1.514510000000000     -2.873820000000000      1.016990000000000
C      -2.237290000000000     -3.816610000000000     -0.936280000000000
H      -0.303240000000000     -2.300240000000000      2.002230000000000
H      -0.377640000000000     -3.933530000000000      1.308680000000000
H      -0.757370000000000     -2.691350000000000     -2.019970000000000
H      -0.068960000000000     -4.044740000000000     -1.095590000000000
H      -2.987090000000000     -2.996850000000000     -0.949370000000000
H      -2.432740000000000     -4.499800000000000     -1.788220000000000
H      -2.338530000000000     -4.383330000000000      0.012010000000000
H       1.870670000000000     -1.832730000000000      0.873470000000000
H       1.952530000000000     -3.273640000000000      1.955420000000000
H       1.863090000000000     -3.496120000000000      0.167790000000000
C      -0.423840000000000      2.764830000000000     -1.771900000000000
C      -2.320770000000000      1.454220000000000     -2.170020000000000
O      -0.966650000000000      1.462250000000000     -1.780170000000000
C      -0.682760000000000      3.470290000000000     -0.442210000000000
C      -2.862670000000000      0.040440000000000     -1.989200000000000
H       0.675880000000000      2.659450000000000     -1.886200000000000
H      -0.769310000000000      3.376470000000000     -2.634580000000000
H      -2.933480000000000      2.131230000000000     -1.536800000000000
H      -2.415640000000000      1.732380000000000     -3.241830000000000
H      -2.780950000000000     -0.271330000000000     -0.925660000000000
H      -3.929580000000000     -0.001630000000000     -2.292050000000000
H      -2.282800000000000     -0.672520000000000     -2.612930000000000
H      -0.309610000000000      2.850970000000000      0.399330000000000
H      -0.149800000000000      4.443920000000000     -0.430780000000000
H      -1.764910000000000      3.661910000000000     -0.298210000000000
C       2.592530000000000      0.232570000000000     -1.981540000000000
C       3.107080000000000      0.889670000000000      0.212910000000000
O       2.091830000000000      0.499000000000000     -0.687010000000000
C       2.943090000000000     -1.243600000000000     -2.129480000000000
C       3.242700000000000      2.406810000000000      0.232350000000000
H       1.789110000000000      0.473610000000000     -2.709980000000000
H       3.459330000000000      0.877090000000000     -2.251230000000000
H       2.807140000000000      0.550810000000000      1.226360000000000
H       4.085650000000000      0.401910000000000      0.003060000000000
H       2.268550000000000      2.873190000000000      0.490190000000000
H       3.994830000000000      2.702710000000000      0.992760000000000
H       3.568390000000000      2.777550000000000     -0.761210000000000
H       2.051090000000000     -1.870470000000000     -1.916900000000000
H       3.280180000000000     -1.441980000000000     -3.168530000000000
H       3.757950000000000     -1.521060000000000     -1.429420000000000
C       0.126940000000000      1.122900000000000      2.865690000000000
C      -1.936700000000000      0.189030000000000      2.251720000000000
O      -0.612320000000000      0.478310000000000      1.849170000000000
C       0.855210000000000      0.102180000000000      3.732230000000000
C      -2.872050000000000      1.340260000000000      1.902150000000000
H       0.884140000000000      1.768310000000000      2.373540000000000
H      -0.496930000000000      1.800740000000000      3.488470000000000
H      -2.270720000000000     -0.710700000000000      1.692330000000000
H      -2.013520000000000     -0.071700000000000      3.331100000000000
H      -2.824110000000000      1.550320000000000      0.815280000000000
H      -3.914380000000000      1.065190000000000      2.166730000000000
H      -2.589450000000000      2.256870000000000      2.458970000000000
H       1.509910000000000     -0.536420000000000      3.103030000000000
H       1.481990000000000      0.631630000000000      4.479770000000000
H       0.128090000000000     -0.543080000000000      4.266420000000000
Mg     -1.736950000000000      7.977980000000000      7.575120000000000
C      -2.090500000000000      9.231270000000000     11.200440000000000
C      -0.988290000000000      7.206380000000000     11.259919999999999
O      -2.042670000000000      7.927240000000000     10.655889999999999
C      -3.443580000000000      9.857080000000000     10.899430000000001
C      -0.861560000000000      5.840890000000000     10.599030000000001
H      -1.981150000000000      9.225320000000000     12.308479999999999
H      -1.295520000000000      9.863300000000001     10.751260000000000
H      -0.019350000000000      7.739450000000000     11.145580000000001
H      -1.197820000000000      7.042470000000000     12.339150000000000
H      -0.638900000000000      5.951930000000000      9.518540000000000
H      -0.037030000000000      5.268920000000000     11.074960000000001
H      -1.808050000000000      5.273120000000000     10.717079999999999
H      -4.255520000000000      9.245649999999999     11.343700000000000
H      -3.484620000000000     10.885389999999999     11.314840000000000
H      -3.610220000000000      9.917930000000000      9.812910000000000
H      -2.845150000000000      4.985440000000000      8.359629999999999
C      -2.107200000000000      5.272710000000000      6.314450000000000
C      -2.907910000000000      5.719460000000000      7.531570000000000
C      -0.622880000000000      5.089450000000000      6.655730000000000
H      -2.535290000000000      4.314230000000000      5.955030000000000
H      -2.205670000000000      6.037610000000000      5.512360000000000
H      -0.176530000000000      6.061450000000000      6.960300000000000
H      -0.516570000000000      4.370840000000000      7.496340000000000
C       0.146530000000000      4.543760000000000      5.456190000000000
H      -3.966630000000000      5.909490000000000      7.260590000000000
H      -0.273620000000000      3.560760000000000      5.157170000000000
H       0.082670000000000      5.245070000000000      4.597240000000000
H       1.214510000000000      4.402970000000000      5.725680000000000
C       1.148270000000000      8.257059999999999      8.849069999999999
C       1.894450000000000      9.372669999999999      9.190160000000001
C       1.128860000000000     10.480000000000000      8.855960000000000
C      -0.055510000000000      9.996880000000001      8.347049999999999
N      -0.025160000000000      8.653359999999999      8.346650000000000
C      -1.247460000000000     10.777570000000001      7.825180000000000
N      -2.424700000000000      9.891439999999999      7.658700000000000
C      -3.541880000000000     10.324310000000001      6.797410000000000
H       2.881680000000000      9.376560000000000      9.628100000000000
H       1.450230000000000      7.222330000000000      8.973269999999999
H       1.401770000000000     11.520070000000000      8.982430000000001
H      -1.512810000000000     11.566739999999999      8.558909999999999
H      -0.941830000000000     11.246130000000001      6.868310000000000
C      -3.145120000000000     10.254090000000000      5.313130000000000
C      -4.733030000000000      9.371650000000001      7.027580000000000
C      -3.984180000000000     11.753980000000000      7.171330000000000
H      -2.864810000000000      9.214449999999999      5.037500000000000
H      -3.998470000000000     10.567800000000000      4.672770000000000
H      -2.290760000000000     10.922180000000001      5.088730000000000
H      -5.065420000000000      9.389089999999999      8.086710000000000
H      -5.601090000000000      9.665699999999999      6.397040000000000
H      -4.457870000000000      8.327290000000000      6.770110000000000
H      -4.263660000000000     11.800630000000000      8.246630000000000
H      -3.168810000000000     12.484320000000000      6.989680000000000
H      -4.862520000000000     12.066620000000000      6.567670000000000

-C 0
6-31g(d,p)
****
-H 0
6-31g(d,p)
****
-Mg 0
6-31g(d,p)
****
-N 0
6-31+g(d,p)
****
-Na 0
6-31g(d,p)
****
-O 0
6-31+g(d,p)
****


