%chk=lowest10_c1_a1_speciation3_speciationDFT37b_rank03_E120.35.chk
%nprocshared=20
%mem=40GB
#p opt=loose PM7/gen scf=xqc 

lowest10_c1_a1_speciation3_speciationDFT37b_rank03_E120.35 DFT input

0 1
Na     -0.255980000000000     -0.275430000000000      0.008210000000000
C       0.314500000000000      0.253870000000000      3.048570000000000
C      -1.390620000000000     -1.357030000000000      2.882070000000000
O      -0.675520000000000     -0.331740000000000      2.227920000000000
C       1.645490000000000     -0.482270000000000      2.926530000000000
C      -2.626520000000000     -0.784670000000000      3.564130000000000
H       0.467290000000000      1.293150000000000      2.691210000000000
H      -0.002900000000000      0.335330000000000      4.110510000000000
H      -1.721430000000000     -2.083980000000000      2.108380000000000
H      -0.763990000000000     -1.932620000000000      3.598770000000000
H      -3.264720000000000     -0.261360000000000      2.819980000000000
H      -3.211500000000000     -1.606740000000000      4.025370000000000
H      -2.330860000000000     -0.065680000000000      4.355260000000000
H       1.975400000000000     -0.515080000000000      1.867690000000000
H       2.415330000000000      0.056510000000000      3.515770000000000
H       1.559830000000000     -1.518000000000000      3.313380000000000
C      -0.967540000000000     -0.648230000000000     -3.081890000000000
C      -2.929740000000000     -0.492480000000000     -1.810970000000000
O      -1.542780000000000     -0.739160000000000     -1.796730000000000
C      -0.592410000000000      0.791010000000000     -3.430290000000000
C      -3.421990000000000     -0.459340000000000     -0.367130000000000
H      -0.027880000000000     -1.239780000000000     -3.057840000000000
H      -1.605460000000000     -1.109090000000000     -3.867480000000000
H      -3.166370000000000      0.491260000000000     -2.269830000000000
H      -3.461920000000000     -1.308580000000000     -2.345250000000000
H      -2.908280000000000      0.347800000000000      0.198330000000000
H      -4.515770000000000     -0.273820000000000     -0.337210000000000
H      -3.208600000000000     -1.429210000000000      0.130270000000000
H       0.059990000000000      1.220300000000000     -2.642250000000000
H      -0.040340000000000      0.805620000000000     -4.393310000000000
H      -1.496790000000000      1.422790000000000     -3.535590000000000
C       1.479070000000000     -2.763140000000000     -0.876140000000000
C       2.930370000000000     -0.917610000000000     -0.991690000000000
O       1.606390000000000     -1.358880000000000     -0.779060000000000
C       1.653750000000000     -3.420780000000000      0.489050000000000
C       3.155260000000000     -0.587850000000000     -2.462860000000000
H       0.450840000000000     -2.982880000000000     -1.235400000000000
H       2.171630000000000     -3.207520000000000     -1.625180000000000
H       3.072730000000000      0.010740000000000     -0.400440000000000
H       3.691960000000000     -1.638320000000000     -0.619350000000000
H       2.418440000000000      0.169810000000000     -2.803920000000000
H       4.177530000000000     -0.177510000000000     -2.598700000000000
H       3.048090000000000     -1.500170000000000     -3.084450000000000
H       0.912070000000000     -3.014130000000000      1.209270000000000
H       1.494220000000000     -4.515660000000000      0.394920000000000
H       2.676430000000000     -3.241360000000000      0.879640000000000
C       1.425230000000000      2.698460000000000     -0.387610000000000
C      -0.754460000000000      2.827880000000000      0.482350000000000
O       0.280840000000000      1.980580000000000      0.024580000000000
C       2.395990000000000      2.887450000000000      0.773550000000000
C      -1.680730000000000      3.224840000000000     -0.661690000000000
H       1.932610000000000      2.096550000000000     -1.170140000000000
H       1.175320000000000      3.672430000000000     -0.863230000000000
H      -1.352060000000000      2.257440000000000      1.225320000000000
H      -0.371970000000000      3.725810000000000      1.016100000000000
H      -2.098870000000000      2.319930000000000     -1.145020000000000
H      -2.519570000000000      3.834580000000000     -0.265460000000000
H      -1.132980000000000      3.817940000000000     -1.421630000000000
H       2.677050000000000      1.904280000000000      1.205980000000000
H       3.315140000000000      3.391180000000000      0.407990000000000
H       1.937060000000000      3.512030000000000      1.566800000000000
Mg      3.061220000000000     -0.418720000000000      8.297560000000001
C       0.051510000000000     -1.278180000000000      8.886740000000000
C       0.302690000000000      1.092420000000000      8.955760000000000
O       0.840670000000000     -0.171920000000000      9.278219999999999
C      -0.212990000000000     -1.360540000000000      7.383140000000000
C      -0.896500000000000      1.433230000000000      9.824900000000000
H       0.641590000000000     -2.174490000000000      9.149860000000000
H      -0.875500000000000     -1.359940000000000      9.488120000000000
H       1.100650000000000      1.835450000000000      9.174680000000000
H       0.084440000000000      1.208900000000000      7.874270000000000
H      -0.635710000000000      1.279150000000000     10.893230000000001
H      -1.178590000000000      2.494410000000000      9.665870000000000
H      -1.757610000000000      0.790490000000000      9.553030000000000
H       0.720910000000000     -1.187030000000000      6.812470000000000
H      -0.599700000000000     -2.371190000000000      7.135430000000000
H      -0.974380000000000     -0.614980000000000      7.080610000000000
H       3.292820000000000     -0.007480000000000      5.754440000000000
C       4.012730000000000      1.810200000000000      6.717800000000000
C       3.001050000000000      0.694130000000000      6.559730000000000
C       5.379950000000000      1.246860000000000      7.122770000000000
H       4.075090000000000      2.343050000000000      5.748550000000000
H       3.667980000000000      2.514120000000000      7.508140000000000
H       5.316600000000000      0.812910000000000      8.142390000000001
H       5.691700000000000      0.443110000000000      6.423000000000000
C       6.442130000000000      2.338950000000000      7.102540000000000
H       1.982790000000000      1.091100000000000      6.375210000000000
H       6.541700000000000      2.735990000000000      6.069640000000000
H       6.168950000000000      3.167700000000000      7.789250000000000
H       7.420690000000000      1.918000000000000      7.415400000000000
C       5.925330000000000      0.089260000000000     10.739530000000000
C       4.724330000000000      0.759500000000000     10.873830000000000
C       3.728480000000000     -0.193600000000000     10.787810000000000
C       4.337930000000000     -1.358460000000000     10.582459999999999
N       5.728540000000000     -1.169360000000000     10.576280000000001
C       3.680350000000000     -2.700180000000000     10.370520000000001
N       3.003420000000000     -2.769120000000000      9.063370000000001
C       3.679660000000000     -3.500580000000000      7.963790000000000
H       4.589510000000000      1.828930000000000     10.989089999999999
H       6.906900000000000      0.535310000000000     10.751530000000001
H       2.668040000000000     -0.014520000000000     10.853690000000000
H       2.927650000000000     -2.857580000000000     11.172129999999999
H       4.441550000000000     -3.489460000000000     10.476670000000000
C       3.835160000000000     -4.992310000000000      8.317349999999999
C       2.781120000000000     -3.399700000000000      6.713900000000000
C       5.052970000000000     -2.885550000000000      7.619290000000000
H       2.852910000000000     -5.417880000000000      8.613479999999999
H       4.217510000000000     -5.559860000000000      7.441660000000000
H       4.557960000000000     -5.153540000000000      9.139650000000000
H       2.676210000000000     -2.344250000000000      6.388990000000000
H       3.209910000000000     -3.969730000000000      5.860150000000000
H       1.766070000000000     -3.799200000000000      6.925990000000000
H       4.940830000000000     -1.844190000000000      7.249820000000000
H       5.723150000000000     -2.876190000000000      8.500209999999999
H       5.554960000000000     -3.478030000000000      6.823010000000000

-C 0
6-31g(d,p)
****
-H 0
6-31g(d,p)
****
-Mg 0
6-31g(d,p)
****
-N 0
6-31+g(d,p)
****
-Na 0
6-31g(d,p)
****
-O 0
6-31+g(d,p)
****


