%chk=lowest10_c1_a1_speciation3_speciationDFT1_rank04_E133.80.chk
%nprocshared=20
%mem=40GB
#p opt=loose PM7/gen scf=xqc 

lowest10_c1_a1_speciation3_speciationDFT1_rank04_E133.80 DFT input

0 1
Na     -0.117240000000000     -0.117160000000000     -0.367430000000000
C      -0.008000000000000     -2.899330000000000      1.118180000000000
C      -0.834600000000000     -3.234500000000000     -1.055210000000000
O      -0.605750000000000     -2.307220000000000     -0.016560000000000
C       1.514030000000000     -2.872970000000000      1.017210000000000
C      -2.236350000000000     -3.815800000000000     -0.936590000000000
H      -0.302900000000000     -2.295730000000000      2.001390000000000
H      -0.380020000000000     -3.929480000000000      1.309340000000000
H      -0.759190000000000     -2.687760000000000     -2.020290000000000
H      -0.067970000000000     -4.040290000000000     -1.096970000000000
H      -2.988930000000000     -2.998510000000000     -0.949990000000000
H      -2.426880000000000     -4.497950000000000     -1.789930000000000
H      -2.337890000000000     -4.384090000000000      0.010800000000000
H       1.872280000000000     -1.832680000000000      0.872970000000000
H       1.950880000000000     -3.272470000000000      1.956350000000000
H       1.862370000000000     -3.496740000000000      0.169020000000000
C      -0.422520000000000      2.762110000000000     -1.770570000000000
C      -2.320630000000000      1.452390000000000     -2.168150000000000
O      -0.966540000000000      1.460050000000000     -1.778340000000000
C      -0.682310000000000      3.469380000000000     -0.442050000000000
C      -2.862500000000000      0.038400000000000     -1.987810000000000
H       0.677270000000000      2.655370000000000     -1.882890000000000
H      -0.765900000000000      3.373050000000000     -2.634500000000000
H      -2.933210000000000      2.129280000000000     -1.534720000000000
H      -2.415450000000000      1.730970000000000     -3.239830000000000
H      -2.780950000000000     -0.273800000000000     -0.924380000000000
H      -3.929330000000000     -0.003980000000000     -2.290880000000000
H      -2.282360000000000     -0.674300000000000     -2.611580000000000
H      -0.311450000000000      2.850380000000000      0.400740000000000
H      -0.147620000000000      4.442060000000000     -0.430800000000000
H      -1.764350000000000      3.663020000000000     -0.299920000000000
C       2.590450000000000      0.232050000000000     -1.981300000000000
C       3.104950000000000      0.888900000000000      0.213460000000000
O       2.089960000000000      0.498110000000000     -0.686650000000000
C       2.942540000000000     -1.243760000000000     -2.129720000000000
C       3.241740000000000      2.406010000000000      0.232200000000000
H       1.786340000000000      0.472030000000000     -2.709360000000000
H       3.456270000000000      0.877640000000000     -2.251300000000000
H       2.804050000000000      0.551070000000000      1.226970000000000
H       4.083130000000000      0.400090000000000      0.004620000000000
H       2.267850000000000      2.873500000000000      0.489100000000000
H       3.993480000000000      2.701620000000000      0.993110000000000
H       3.568570000000000      2.776140000000000     -0.761180000000000
H       2.051340000000000     -1.871830000000000     -1.917120000000000
H       3.279400000000000     -1.441380000000000     -3.168980000000000
H       3.758000000000000     -1.520620000000000     -1.430170000000000
C       0.128120000000000      1.122330000000000      2.864640000000000
C      -1.936180000000000      0.188410000000000      2.250040000000000
O      -0.612130000000000      0.479140000000000      1.847810000000000
C       0.855600000000000      0.100210000000000      3.730510000000000
C      -2.872590000000000      1.338660000000000      1.900370000000000
H       0.886610000000000      1.765540000000000      2.371520000000000
H      -0.493480000000000      1.803000000000000      3.488260000000000
H      -2.269410000000000     -0.711220000000000      1.689850000000000
H      -2.012890000000000     -0.073130000000000      3.329120000000000
H      -2.824700000000000      1.549180000000000      0.813600000000000
H      -3.914730000000000      1.062660000000000      2.164650000000000
H      -2.590730000000000      2.255290000000000      2.457290000000000
H       1.508970000000000     -0.539510000000000      3.101080000000000
H       1.484140000000000      0.628670000000000      4.477230000000000
H       0.128050000000000     -0.543720000000000      4.265660000000000
Mg     -7.023740000000000     -7.478970000000000      3.428070000000000
H      -8.478640000000000     -6.139720000000000      1.094210000000000
C      -6.466740000000000     -6.327550000000000      0.255560000000000
C      -7.417540000000000     -6.033520000000000      1.400010000000000
C      -6.687830000000000     -5.314290000000000     -0.862650000000000
H      -5.420380000000000     -6.266750000000000      0.626920000000000
H      -6.653190000000000     -7.360290000000000     -0.112810000000000
H      -7.740780000000000     -5.379160000000000     -1.213860000000000
H      -6.500290000000000     -4.290310000000000     -0.471480000000000
C      -5.756180000000000     -5.576340000000000     -2.035750000000000
H      -7.224130000000000     -5.035990000000000      1.847020000000000
H      -4.698710000000000     -5.501600000000000     -1.707970000000000
H      -5.940770000000000     -6.588500000000000     -2.454010000000000
H      -5.944540000000000     -4.819270000000000     -2.824860000000000
C      -9.555360000000000     -7.801850000000000      5.307380000000000
C      -9.812609999999999     -8.654190000000000      6.370960000000000
C      -8.691060000000000     -9.455660000000000      6.518500000000000
C      -7.806800000000000     -9.073820000000000      5.537800000000000
N      -8.339790000000001     -8.066020000000000      4.819540000000000
C      -6.428980000000000     -9.635160000000001      5.253290000000000
N      -5.892720000000000     -9.065020000000001      4.000040000000000
C      -4.574010000000000     -9.466400000000000      3.480060000000000
H     -10.709530000000001     -8.685790000000001      6.971850000000000
H     -10.222450000000000     -7.036010000000000      4.925690000000000
H      -8.539660000000000    -10.236450000000000      7.253680000000000
H      -6.516050000000000    -10.734030000000001      5.150680000000000
H      -5.776800000000000     -9.379379999999999      6.114230000000000
C      -4.602970000000000    -10.956140000000000      3.089060000000000
C      -4.262220000000000     -8.638380000000000      2.219740000000000
C      -3.474350000000000     -9.209650000000000      4.525510000000000
H      -5.390570000000000    -11.136110000000000      2.324570000000000
H      -3.624990000000000    -11.272740000000001      2.668150000000000
H      -4.814700000000000    -11.599340000000000      3.966780000000000
H      -4.220920000000000     -7.554660000000000      2.460050000000000
H      -3.278970000000000     -8.934720000000000      1.789930000000000
H      -5.038870000000000     -8.797190000000001      1.441360000000000
H      -3.456780000000000     -8.135510000000000      4.809980000000000
H      -3.641820000000000     -9.817720000000000      5.437870000000000
H      -2.477780000000000     -9.484529999999999      4.117720000000000

-C 0
6-31g(d,p)
****
-H 0
6-31g(d,p)
****
-Mg 0
6-31g(d,p)
****
-N 0
6-31+g(d,p)
****
-Na 0
6-31g(d,p)
****
-O 0
6-31+g(d,p)
****


