%chk=lowest10_c1_a1_speciation0_speciationDFT1_rank02_E97.25.chk
%nprocshared=20
%mem=40GB
#p opt=loose PM7/gen scf=xqc 

lowest10_c1_a1_speciation0_speciationDFT1_rank02_E97.25 DFT input

0 1
Na      1.703590000000000     -0.762380000000000      0.912300000000000
C      -1.193690000000000      1.028090000000000      0.518200000000000
C      -0.614050000000000      0.025560000000000     -1.488800000000000
O      -0.257270000000000      0.203980000000000     -0.137350000000000
C      -0.756520000000000      1.185780000000000      1.969890000000000
C       0.428800000000000     -0.872700000000000     -2.143340000000000
H      -1.224550000000000      2.040780000000000      0.055850000000000
H      -2.205760000000000      0.563390000000000      0.511390000000000
H      -1.603720000000000     -0.475170000000000     -1.575240000000000
H      -0.620610000000000      0.998480000000000     -2.030420000000000
H       0.463170000000000     -1.855860000000000     -1.626360000000000
H       0.179570000000000     -1.038380000000000     -3.212310000000000
H       1.432320000000000     -0.399460000000000     -2.077670000000000
H       0.252450000000000      1.649470000000000      2.015310000000000
H      -1.472470000000000      1.830840000000000      2.520940000000000
H      -0.714640000000000      0.191660000000000      2.464840000000000
Mg     -3.525550000000000     -5.632670000000000      2.033700000000000
H      -4.949950000000000     -4.323670000000000     -0.252600000000000
C      -2.939890000000000     -4.496670000000000     -1.111320000000000
C      -3.885580000000000     -4.205640000000000      0.036290000000000
C      -3.172090000000000     -3.479870000000000     -2.221270000000000
H      -1.891870000000000     -4.434230000000000     -0.744880000000000
H      -3.125530000000000     -5.528970000000000     -1.481750000000000
H      -4.226880000000000     -3.549580000000000     -2.565730000000000
H      -2.991090000000000     -2.459010000000000     -1.822220000000000
C      -2.243610000000000     -3.727310000000000     -3.399730000000000
H      -3.689540000000000     -3.215350000000000      0.498110000000000
H      -1.183750000000000     -3.645330000000000     -3.077880000000000
H      -2.423880000000000     -4.738230000000000     -3.823200000000000
H      -2.442830000000000     -2.966810000000000     -4.182570000000000
C      -6.052950000000000     -5.951500000000000      3.924150000000000
C      -6.297250000000000     -6.808570000000000      4.985410000000000
C      -5.171430000000000     -7.605120000000000      5.125970000000000
C      -4.295450000000000     -7.211320000000000      4.142290000000000
N      -4.834730000000000     -6.212740000000000      3.427610000000000
C      -2.909970000000000     -7.761330000000000      3.864140000000000
N      -2.379240000000000     -7.201340000000000      2.605050000000000
C      -1.059650000000000     -7.611990000000000      2.091980000000000
H      -7.190500000000000     -6.847450000000000      5.592500000000000
H      -6.723420000000000     -5.187320000000000      3.548810000000000
H      -5.008920000000000     -8.387130000000001      5.854910000000000
H      -2.983350000000000     -8.860490000000000      3.777000000000000
H      -2.262880000000000     -7.480090000000000      4.719900000000000
C      -1.097930000000000     -9.103339999999999      1.708220000000000
C      -0.733650000000000     -6.792230000000000      0.830100000000000
C       0.036510000000000     -7.359850000000000      3.142420000000000
H      -1.878700000000000     -9.280320000000000      0.936000000000000
H      -0.117900000000000     -9.432050000000000      1.303050000000000
H      -1.325740000000000     -9.740150000000000      2.586270000000000
H      -0.680290000000000     -5.708110000000000      1.066320000000000
H       0.248010000000000     -7.102070000000000      0.406000000000000
H      -1.508320000000000     -6.945990000000000      0.048860000000000
H       0.057770000000000     -6.285710000000000      3.426920000000000
H      -0.138160000000000     -7.967160000000000      4.053910000000000
H       1.033440000000000     -7.640090000000000      2.739640000000000

-C 0
6-31g(d,p)
****
-H 0
6-31g(d,p)
****
-Mg 0
6-31g(d,p)
****
-N 0
6-31+g(d,p)
****
-Na 0
6-31g(d,p)
****
-O 0
6-31+g(d,p)
****


