%chk=lowest10_c1_a1_speciation3_speciationDFT36_rank08_E137.36.chk
%nprocshared=20
%mem=40GB
#p opt=loose PM7/gen scf=xqc 

lowest10_c1_a1_speciation3_speciationDFT36_rank08_E137.36 DFT input

0 1
Na     -0.368790000000000     -0.048890000000000      0.034490000000000
C      -0.273530000000000      1.428530000000000     -2.731090000000000
C      -2.511580000000000      0.883180000000000     -2.257280000000000
O      -1.153950000000000      0.623600000000000     -1.973720000000000
C       0.032510000000000      2.743090000000000     -2.018500000000000
C      -3.002740000000000     -0.034760000000000     -3.369410000000000
H       0.678870000000000      0.869130000000000     -2.836230000000000
H      -0.641340000000000      1.608720000000000     -3.764000000000000
H      -3.096360000000000      0.664430000000000     -1.337290000000000
H      -2.706700000000000      1.951230000000000     -2.499700000000000
H      -2.848260000000000     -1.097170000000000     -3.083110000000000
H      -4.084720000000000      0.137660000000000     -3.544040000000000
H      -2.449900000000000      0.169420000000000     -4.309050000000000
H       0.446180000000000      2.548990000000000     -1.007320000000000
H       0.785410000000000      3.310520000000000     -2.605140000000000
H      -0.882910000000000      3.361470000000000     -1.923160000000000
C      -0.424750000000000     -1.734840000000000      2.744650000000000
C      -1.809490000000000     -2.733800000000000      1.140300000000000
O      -1.130840000000000     -1.564060000000000      1.535070000000000
C       0.964650000000000     -2.323580000000000      2.507110000000000
C      -2.404730000000000     -2.494470000000000     -0.244030000000000
H      -0.286550000000000     -0.724050000000000      3.183640000000000
H      -0.998810000000000     -2.323560000000000      3.493230000000000
H      -1.120200000000000     -3.601820000000000      1.064610000000000
H      -2.638600000000000     -2.956200000000000      1.845830000000000
H      -1.600630000000000     -2.267870000000000     -0.976980000000000
H      -2.955480000000000     -3.394730000000000     -0.587310000000000
H      -3.106580000000000     -1.634220000000000     -0.213180000000000
H       1.523550000000000     -1.707120000000000      1.773250000000000
H       1.529170000000000     -2.334310000000000      3.462920000000000
H       0.896230000000000     -3.363140000000000      2.129220000000000
C      -0.958660000000000      2.113210000000000      2.260190000000000
C       1.357230000000000      2.231640000000000      1.878010000000000
O       0.153640000000000      1.550340000000000      1.594640000000000
C      -1.637900000000000      3.165770000000000      1.390210000000000
C       2.063030000000000      1.598410000000000      3.071390000000000
H      -1.688290000000000      1.296230000000000      2.446220000000000
H      -0.696760000000000      2.527430000000000      3.257710000000000
H       2.015170000000000      2.130820000000000      0.989900000000000
H       1.211180000000000      3.324240000000000      2.030190000000000
H       2.244930000000000      0.519360000000000      2.881440000000000
H       3.038730000000000      2.101610000000000      3.234510000000000
H       1.445910000000000      1.704630000000000      3.986850000000000
H      -1.952550000000000      2.718660000000000      0.423010000000000
H      -2.538110000000000      3.552560000000000      1.912720000000000
H      -0.948460000000000      4.012150000000000      1.192940000000000
C       2.998260000000000     -0.447050000000000     -0.544460000000000
C       1.544760000000000     -1.769630000000000     -1.833760000000000
O       1.655330000000000     -0.767820000000000     -0.842050000000000
C       3.495110000000000      0.689420000000000     -1.431940000000000
C       1.510990000000000     -3.158060000000000     -1.205100000000000
H       3.033500000000000     -0.104550000000000      0.510800000000000
H       3.675590000000000     -1.327350000000000     -0.604600000000000
H       0.582730000000000     -1.610840000000000     -2.366510000000000
H       2.341900000000000     -1.700730000000000     -2.606640000000000
H       0.675500000000000     -3.228140000000000     -0.480970000000000
H       1.358240000000000     -3.920490000000000     -1.997420000000000
H       2.462610000000000     -3.372840000000000     -0.678230000000000
H       2.839610000000000      1.578860000000000     -1.323280000000000
H       4.526560000000000      0.968690000000000     -1.131410000000000
H       3.504700000000000      0.376600000000000     -2.495920000000000
Mg      0.351020000000000      8.150440000000000      7.430660000000000
C       1.611270000000000      5.279620000000000      5.360290000000000
C      -0.693380000000000      5.203450000000000      5.374920000000000
O       0.456430000000000      5.447090000000000      6.159740000000000
C       2.830710000000000      5.110070000000000      6.253680000000000
C      -1.945070000000000      5.468110000000000      6.200870000000000
H       1.550820000000000      4.367580000000000      4.725520000000000
H       1.762890000000000      6.168710000000000      4.714070000000000
H      -0.717220000000000      5.860790000000000      4.480550000000000
H      -0.722980000000000      4.143770000000000      5.048640000000000
H      -1.981150000000000      6.526220000000000      6.529930000000000
H      -2.847960000000000      5.256940000000000      5.589590000000000
H      -1.954760000000000      4.810760000000000      7.095030000000000
H       2.704550000000000      4.227970000000000      6.913360000000000
H       3.740270000000000      4.983610000000000      5.630690000000000
H       2.975290000000000      5.994420000000000      6.890270000000000
H      -1.634890000000000      6.326980000000000      9.122280000000000
C      -1.787790000000000      8.494600000000000      9.497820000000001
C      -0.991270000000000      7.211760000000000      9.292100000000000
C      -2.698350000000000      8.798130000000000      8.299899999999999
H      -2.397180000000000      8.369529999999999     10.415330000000001
H      -1.082120000000000      9.343450000000001      9.640530000000000
H      -2.088230000000000      8.986010000000000      7.388570000000000
H      -3.366410000000000      7.931910000000000      8.107020000000000
C      -3.566970000000000     10.022990000000000      8.577660000000000
H      -0.275240000000000      7.039540000000000     10.121290000000000
H      -4.197910000000000      9.842870000000000      9.474420000000000
H      -2.935470000000000     10.920019999999999      8.751600000000000
H      -4.234560000000000     10.218220000000001      7.711860000000000
C      -0.862890000000000      8.414540000000001      4.521810000000000
C      -0.263070000000000      8.722750000000000      3.313600000000000
C       1.078330000000000      8.954020000000000      3.581170000000000
C       1.243310000000000      8.763159999999999      4.933180000000000
N       0.068300000000000      8.427980000000000      5.483610000000000
C       2.509690000000000      8.918730000000000      5.756050000000000
N       2.344290000000000      8.321140000000000      7.101290000000000
C       3.281240000000000      8.696360000000000      8.179240000000000
H      -0.748740000000000      8.774210000000000      2.350270000000000
H      -1.910210000000000      8.179320000000001      4.677580000000000
H       1.849140000000000      9.220370000000001      2.871470000000000
H       3.346940000000000      8.402130000000000      5.245170000000000
H       2.716820000000000     10.004880000000000      5.817090000000000
C       3.028870000000000     10.138180000000000      8.654999999999999
C       3.061130000000000      7.746210000000000      9.374260000000000
C       4.735680000000000      8.538679999999999      7.692920000000000
H       1.997250000000000     10.241460000000000      9.055300000000001
H       3.745350000000000     10.404590000000001      9.462930000000000
H       3.165250000000000     10.868990000000000      7.834390000000000
H       3.242440000000000      6.688670000000000      9.089490000000000
H       3.753270000000000      7.995260000000000     10.209050000000000
H       2.021590000000000      7.827760000000000      9.754580000000001
H       4.910070000000000      7.499780000000000      7.336990000000000
H       4.951790000000000      9.235630000000000      6.857000000000000
H       5.453690000000000      8.754500000000000      8.511870000000000

-C 0
6-31g(d,p)
****
-H 0
6-31g(d,p)
****
-Mg 0
6-31g(d,p)
****
-N 0
6-31+g(d,p)
****
-Na 0
6-31g(d,p)
****
-O 0
6-31+g(d,p)
****


