%chk=lowest10_c1_a1_speciation0_speciationDFT38_rank05_E98.18.chk
%nprocshared=20
%mem=40GB
#p opt=loose PM7/gen scf=xqc 

lowest10_c1_a1_speciation0_speciationDFT38_rank05_E98.18 DFT input

0 1
Na     -1.832800000000000     -0.980280000000000      0.000520000000000
C       0.680430000000000      1.138370000000000     -1.003160000000000
C       1.260250000000000      0.134460000000000      1.001850000000000
O       0.276430000000000      0.232790000000000     -0.002060000000000
C      -0.417850000000000      1.205120000000000     -2.057430000000000
C       0.769690000000000     -0.850660000000000      2.055680000000000
H       0.816890000000000      2.160890000000000     -0.583180000000000
H       1.614580000000000      0.790740000000000     -1.499900000000000
H       2.216420000000000     -0.254940000000000      0.584270000000000
H       1.420810000000000      1.118160000000000      1.499010000000000
H       0.597580000000000     -1.845810000000000      1.594290000000000
H       1.521620000000000     -0.955830000000000      2.865360000000000
H      -0.185560000000000     -0.492290000000000      2.496230000000000
H      -1.367670000000000      1.551490000000000     -1.595880000000000
H      -0.133950000000000      1.910840000000000     -2.865940000000000
H      -0.581790000000000      0.198850000000000     -2.499590000000000
Mg      2.055600000000000     -6.384710000000000     -2.038150000000000
C       4.770950000000000     -6.661180000000000     -0.187210000000000
C       5.332100000000000     -5.799710000000000     -2.348440000000000
O       4.380240000000000     -6.447700000000000     -1.532380000000000
C       5.342910000000000     -5.437800000000000      0.532750000000000
C       6.557940000000000     -6.661900000000000     -2.607670000000000
H       3.845600000000000     -6.933610000000000      0.357280000000000
H       5.449240000000000     -7.534500000000000     -0.106830000000000
H       4.842980000000000     -5.617800000000000     -3.324490000000000
H       5.591220000000000     -4.789970000000000     -1.973520000000000
H       7.207180000000000     -6.153970000000000     -3.350520000000000
H       6.250740000000000     -7.649900000000000     -3.008770000000000
H       7.128900000000000     -6.806840000000000     -1.669890000000000
H       4.664180000000000     -4.574390000000000      0.433840000000000
H       6.342260000000000     -5.175330000000000      0.131280000000000
H       5.448990000000000     -5.662410000000000      1.612880000000000
H       2.316330000000000     -8.663779999999999     -3.401810000000000
C       1.545250000000000     -7.271880000000000     -4.911280000000000
C       1.561540000000000     -7.856540000000000     -3.488630000000000
C       2.850420000000000     -6.582560000000000     -5.356540000000000
H       1.306400000000000     -8.089790000000001     -5.622340000000000
H       0.737790000000000     -6.510630000000000     -4.966190000000000
H       2.710050000000000     -6.208180000000000     -6.395770000000000
H       3.048440000000000     -5.702120000000000     -4.712610000000000
C       4.067710000000000     -7.507100000000000     -5.354060000000000
H       0.563090000000000     -8.258630000000000     -3.230300000000000
H       4.279310000000000     -7.868310000000000     -4.329390000000000
H       3.899380000000000     -8.376799999999999     -6.022250000000000
H       4.960800000000000     -6.950360000000000     -5.714080000000000
C       3.579170000000000     -2.768220000000000     -2.392380000000000
C       2.521140000000000     -3.210210000000000     -3.150750000000000
C       1.632690000000000     -3.843990000000000     -2.299200000000000
C       2.149990000000000     -3.810780000000000     -1.064110000000000
N       3.370760000000000     -3.115400000000000     -1.047540000000000
C       1.548040000000000     -4.465120000000000      0.153300000000000
N       1.443110000000000     -5.909200000000000     -0.083060000000000
C       0.739560000000000     -6.751820000000000      0.915400000000000
H       2.425120000000000     -3.098190000000000     -4.223470000000000
H       4.451110000000000     -2.248680000000000     -2.760650000000000
H       0.711640000000000     -4.330030000000000     -2.589860000000000
H       0.558160000000000     -4.013520000000000      0.347050000000000
H       2.222290000000000     -4.278040000000000      1.016310000000000
C      -0.762350000000000     -6.408030000000000      0.957920000000000
C       0.897350000000000     -8.227700000000000      0.515010000000000
C       1.349020000000000     -6.560210000000000      2.325080000000000
H      -1.225860000000000     -6.567090000000000     -0.037890000000000
H      -1.287480000000000     -7.048190000000000      1.700800000000000
H      -0.930900000000000     -5.356270000000000      1.265220000000000
H       1.967450000000000     -8.523990000000000      0.509290000000000
H       0.360560000000000     -8.888669999999999      1.232620000000000
H       0.478460000000000     -8.401809999999999     -0.498170000000000
H       2.432650000000000     -6.804500000000000      2.323180000000000
H       1.225390000000000     -5.517120000000000      2.683610000000000
H       0.849340000000000     -7.223490000000000      3.065200000000000

-C 0
6-31g(d,p)
****
-H 0
6-31g(d,p)
****
-Mg 0
6-31g(d,p)
****
-N 0
6-31+g(d,p)
****
-Na 0
6-31g(d,p)
****
-O 0
6-31+g(d,p)
****


