%chk=lowest10_c1_a1_speciation3_speciationDFT37b_rank09_E120.63.chk
%nprocshared=20
%mem=40GB
#p opt=loose PM7/gen scf=xqc 

lowest10_c1_a1_speciation3_speciationDFT37b_rank09_E120.63 DFT input

0 1
Na      0.149320000000000      0.321340000000000      0.121420000000000
C       2.498470000000000     -1.693430000000000      0.668210000000000
C       3.205560000000000      0.462750000000000      1.282970000000000
O       2.283140000000000     -0.303070000000000      0.538920000000000
C       1.724030000000000     -2.267510000000000      1.851030000000000
C       4.412300000000000      0.812360000000000      0.422200000000000
H       2.116400000000000     -2.175300000000000     -0.255400000000000
H       3.576830000000000     -1.955180000000000      0.729740000000000
H       2.699230000000000      1.407070000000000      1.579590000000000
H       3.515450000000000     -0.031450000000000      2.230470000000000
H       4.083780000000000      1.351770000000000     -0.491930000000000
H       5.103810000000000      1.462730000000000      0.996320000000000
H       4.950560000000000     -0.110090000000000      0.122610000000000
H       0.642360000000000     -2.040890000000000      1.751500000000000
H       1.854280000000000     -3.369900000000000      1.873380000000000
H       2.096240000000000     -1.845920000000000      2.806740000000000
C      -2.177530000000000      2.382220000000000     -0.641900000000000
C      -0.095360000000000      3.223950000000000     -1.305470000000000
O      -0.777330000000000      2.301300000000000     -0.487840000000000
C      -2.664330000000000      1.528270000000000     -1.811050000000000
C       1.400710000000000      2.950570000000000     -1.187630000000000
H      -2.629550000000000      1.967490000000000      0.283930000000000
H      -2.537460000000000      3.431520000000000     -0.721130000000000
H      -0.374610000000000      3.108720000000000     -2.374670000000000
H      -0.290940000000000      4.262530000000000     -0.962120000000000
H       1.632360000000000      1.916610000000000     -1.522830000000000
H       1.972280000000000      3.664920000000000     -1.815870000000000
H       1.725860000000000      3.060720000000000     -0.131350000000000
H      -2.309850000000000      0.483120000000000     -1.697270000000000
H      -3.774270000000000      1.526050000000000     -1.829300000000000
H      -2.299010000000000      1.931350000000000     -2.776640000000000
C      -1.491320000000000      0.641850000000000      2.807280000000000
C      -2.316990000000000     -1.318830000000000      1.809860000000000
O      -1.470510000000000     -0.197710000000000      1.670550000000000
C      -0.394020000000000      0.249900000000000      3.790990000000000
C      -3.701750000000000     -1.014840000000000      1.250830000000000
H      -1.291610000000000      1.679070000000000      2.462710000000000
H      -2.485330000000000      0.666550000000000      3.307240000000000
H      -1.875670000000000     -2.147650000000000      1.218210000000000
H      -2.378110000000000     -1.688290000000000      2.857860000000000
H      -3.625030000000000     -0.695130000000000      0.190140000000000
H      -4.331670000000000     -1.927000000000000      1.304560000000000
H      -4.186260000000000     -0.207150000000000      1.836700000000000
H       0.598900000000000      0.291730000000000      3.294660000000000
H      -0.395280000000000      0.958800000000000      4.645100000000000
H      -0.565180000000000     -0.776160000000000      4.176720000000000
C      -1.038090000000000     -2.262070000000000     -1.833110000000000
C       0.804460000000000     -1.069300000000000     -2.670610000000000
O      -0.109590000000000     -1.222860000000000     -1.602800000000000
C      -0.517410000000000     -3.585520000000000     -1.283210000000000
C       0.276690000000000     -0.076220000000000     -3.699430000000000
H      -1.971240000000000     -2.002870000000000     -1.290750000000000
H      -1.321960000000000     -2.358240000000000     -2.904530000000000
H       1.747970000000000     -0.660140000000000     -2.250190000000000
H       1.073210000000000     -2.036210000000000     -3.151040000000000
H       0.068230000000000      0.898110000000000     -3.215040000000000
H       1.038490000000000      0.076820000000000     -4.492210000000000
H      -0.656270000000000     -0.453460000000000     -4.165030000000000
H      -0.285710000000000     -3.488500000000000     -0.201840000000000
H      -1.292120000000000     -4.369760000000000     -1.413080000000000
H       0.400800000000000     -3.896330000000000     -1.822120000000000
Mg      2.389620000000000     -0.173910000000000     10.676530000000000
C       1.261450000000000      1.964450000000000      8.582820000000000
C       3.277850000000000      0.964630000000000      7.795650000000000
O       2.561310000000000      1.497660000000000      8.889600000000000
C       0.328210000000000      0.893920000000000      8.018129999999999
C       3.718260000000000      2.048090000000000      6.824360000000000
H       0.821520000000000      2.286120000000000      9.544639999999999
H       1.285660000000000      2.878830000000000      7.957450000000000
H       4.194620000000000      0.498960000000000      8.218790000000000
H       2.741000000000000      0.138350000000000      7.286140000000000
H       4.239940000000000      2.855110000000000      7.380790000000000
H       4.411430000000000      1.612370000000000      6.075520000000000
H       2.839350000000000      2.466020000000000      6.293830000000000
H       0.388360000000000     -0.031980000000000      8.623469999999999
H      -0.716040000000000      1.269900000000000      8.041029999999999
H       0.589640000000000      0.664240000000000      6.966980000000000
H       1.427250000000000     -2.512360000000000     10.053330000000001
C       3.591300000000000     -2.756610000000000     10.140870000000000
C       2.349750000000000     -2.005170000000000      9.706400000000000
C       3.690230000000000     -2.794030000000000     11.670059999999999
H       3.527260000000000     -3.780640000000000      9.722220000000000
H       4.493960000000000     -2.245990000000000      9.736730000000000
H       3.858290000000000     -1.767050000000000     12.057259999999999
H       2.747370000000000     -3.181260000000000     12.110670000000001
C       4.833780000000000     -3.696400000000000     12.115500000000001
H       2.322440000000000     -1.872280000000000      8.606280000000000
H       4.637970000000000     -4.734690000000000     11.771940000000001
H       5.799470000000000     -3.346210000000000     11.693709999999999
H       4.901900000000000     -3.696930000000000     13.223590000000000
C       4.882260000000000      0.345170000000000     13.553150000000000
C       5.148210000000000      0.725030000000000     12.259700000000000
C       4.066060000000000      1.460490000000000     11.807800000000000
C       3.158820000000000      1.505540000000000     12.795820000000001
N       3.625050000000000      0.845090000000000     13.941150000000000
C       1.802970000000000      2.165340000000000     12.724909999999999
N       0.886560000000000      1.427700000000000     11.840650000000000
C      -0.121060000000000      0.535610000000000     12.467950000000000
H       6.040590000000000      0.471180000000000     11.697950000000001
H       5.521380000000000     -0.253360000000000     14.182370000000001
H       3.972670000000000      1.897060000000000     10.829610000000001
H       1.926320000000000      3.198690000000000     12.337460000000000
H       1.402560000000000      2.247510000000000     13.749079999999999
C      -1.102170000000000      1.346800000000000     13.337070000000001
C      -0.928890000000000     -0.127270000000000     11.334860000000001
C       0.537810000000000     -0.582670000000000     13.303459999999999
H      -1.540090000000000      2.176860000000000     12.743040000000001
H      -1.927420000000000      0.696260000000000     13.698770000000000
H      -0.615790000000000      1.768950000000000     14.236789999999999
H      -0.273080000000000     -0.762780000000000     10.705310000000001
H      -1.733670000000000     -0.779120000000000     11.741440000000001
H      -1.397930000000000      0.641580000000000     10.683790000000000
H       1.166530000000000     -1.238020000000000     12.664000000000000
H       1.169470000000000     -0.165590000000000     14.110690000000000
H      -0.239570000000000     -1.218180000000000     13.782040000000000

-C 0
6-31g(d,p)
****
-H 0
6-31g(d,p)
****
-Mg 0
6-31g(d,p)
****
-N 0
6-31+g(d,p)
****
-Na 0
6-31g(d,p)
****
-O 0
6-31+g(d,p)
****


