%chk=lowest10_c1_a1_speciation0_speciationDFT1_rank03_E97.37.chk
%nprocshared=20
%mem=40GB
#p opt=loose PM7/gen scf=xqc 

lowest10_c1_a1_speciation0_speciationDFT1_rank03_E97.37 DFT input

0 1
Na      1.703440000000000     -0.762310000000000      0.912260000000000
C      -1.194230000000000      1.027480000000000      0.518410000000000
C      -0.614140000000000      0.025590000000000     -1.488670000000000
O      -0.258050000000000      0.203120000000000     -0.136960000000000
C      -0.756810000000000      1.185410000000000      1.969950000000000
C       0.429210000000000     -0.872250000000000     -2.142880000000000
H      -1.224930000000000      2.040170000000000      0.055950000000000
H      -2.206250000000000      0.562710000000000      0.511700000000000
H      -1.603870000000000     -0.475040000000000     -1.576310000000000
H      -0.620360000000000      0.998760000000000     -2.029850000000000
H       0.463590000000000     -1.855450000000000     -1.626000000000000
H       0.180590000000000     -1.037590000000000     -3.212010000000000
H       1.432610000000000     -0.398870000000000     -2.076740000000000
H       0.252200000000000      1.649120000000000      2.015170000000000
H      -1.472610000000000      1.830610000000000      2.521010000000000
H      -0.714880000000000      0.191310000000000      2.464940000000000
Mg     -4.690120000000000     -5.610290000000000     -4.874450000000000
H      -2.199910000000000     -4.535550000000000     -3.600500000000000
C      -3.549450000000000     -4.507950000000000     -1.872730000000000
C      -3.250590000000000     -4.291480000000000     -3.342420000000000
C      -2.699030000000000     -3.554380000000000     -1.043370000000000
H      -4.629830000000000     -4.319510000000000     -1.688700000000000
H      -3.323940000000000     -5.564610000000000     -1.608450000000000
H      -1.624050000000000     -3.748260000000000     -1.251100000000000
H      -2.940870000000000     -2.509080000000000     -1.332430000000000
C      -2.960720000000000     -3.731810000000000      0.443820000000000
H      -3.533500000000000     -3.272690000000000     -3.680590000000000
H      -4.027470000000000     -3.523810000000000      0.673150000000000
H      -2.711850000000000     -4.768330000000000      0.755890000000000
H      -2.324210000000000     -3.020620000000000      1.009760000000000
C      -3.445150000000000     -6.155520000000000     -7.740880000000000
C      -3.842020000000000     -7.003410000000000     -8.762710000000000
C      -4.976780000000000     -7.664260000000000     -8.318530000000001
C      -5.217820000000000     -7.203430000000000     -7.045900000000000
N      -4.292190000000000     -6.292800000000000     -6.710100000000000
C      -6.348040000000000     -7.602450000000000     -6.117050000000000
N      -6.137610000000000     -7.023270000000000     -4.775100000000000
C      -7.081510000000000     -7.298150000000000     -3.676610000000000
H      -3.364200000000000     -7.124580000000000     -9.724460000000001
H      -2.595900000000000     -5.482560000000000     -7.758650000000000
H      -5.557860000000000     -8.401630000000001     -8.855140000000000
H      -6.365510000000000     -8.704969999999999     -6.044410000000000
H      -7.291900000000000     -7.225700000000000     -6.561290000000000
C      -7.030070000000000     -8.794870000000000     -3.316080000000000
C      -6.662840000000000     -6.484030000000000     -2.438680000000000
C      -8.512639999999999     -6.894300000000000     -4.073340000000000
H      -5.998810000000000     -9.080600000000000     -3.012550000000000
H      -7.722060000000000     -9.023210000000001     -2.478430000000000
H      -7.327990000000000     -9.427450000000000     -4.176000000000000
H      -6.701760000000000     -5.394390000000000     -2.651050000000000
H      -7.345000000000000     -6.694010000000000     -1.584230000000000
H      -5.629910000000000     -6.746260000000000     -2.125010000000000
H      -8.548130000000000     -5.816740000000000     -4.343150000000000
H      -8.869560000000000     -7.490640000000000     -4.937700000000000
H      -9.215030000000000     -7.072530000000000     -3.231020000000000

-C 0
6-31g(d,p)
****
-H 0
6-31g(d,p)
****
-Mg 0
6-31g(d,p)
****
-N 0
6-31+g(d,p)
****
-Na 0
6-31g(d,p)
****
-O 0
6-31+g(d,p)
****


