%chk=lowest10_c1_a1_speciation0_speciationDFT96_rank07_E105.02.chk
%nprocshared=20
%mem=40GB
#p opt=loose PM7/gen scf=xqc 

lowest10_c1_a1_speciation0_speciationDFT96_rank07_E105.02 DFT input

0 1
Na     -1.588300000000000     -0.979020000000000     -0.917300000000000
C       1.418420000000000      0.640020000000000     -0.518970000000000
C       0.261140000000000      0.638280000000000      1.487230000000000
O       0.239190000000000      0.234880000000000      0.137290000000000
C       1.341910000000000      0.175390000000000     -1.968200000000000
C      -1.034860000000000      0.178230000000000      2.143780000000000
H       1.513840000000000      1.749510000000000     -0.516670000000000
H       2.313420000000000      0.171170000000000     -0.053010000000000
H       1.110090000000000      0.163890000000000      2.029980000000000
H       0.314070000000000      1.747660000000000      1.570070000000000
H      -1.121710000000000     -0.927800000000000      2.079800000000000
H      -1.053710000000000      0.478640000000000      3.212280000000000
H      -1.906160000000000      0.635150000000000      1.626900000000000
H       0.458070000000000      0.629860000000000     -2.465830000000000
H       2.257710000000000      0.476420000000000     -2.518560000000000
H       1.245530000000000     -0.931080000000000     -2.008790000000000
Mg      7.231370000000000     -3.683200000000000     -1.391570000000000
C       4.079070000000000     -4.452700000000000     -0.057670000000000
C       4.788910000000000     -2.216240000000000      0.371160000000000
O       4.962110000000000     -3.396970000000000     -0.389220000000000
C       2.616660000000000     -4.150250000000000     -0.371160000000000
C       5.085550000000000     -2.397060000000000      1.857500000000000
H       4.378670000000000     -5.318210000000000     -0.687320000000000
H       4.201150000000000     -4.788610000000000      0.989690000000000
H       5.531630000000000     -1.486640000000000     -0.008210000000000
H       3.802120000000000     -1.746830000000000      0.189930000000000
H       6.081210000000000     -2.867430000000000      1.994550000000000
H       5.087780000000000     -1.402940000000000      2.351080000000000
H       4.307320000000000     -3.018570000000000      2.342300000000000
H       2.500690000000000     -3.835030000000000     -1.427530000000000
H       2.016470000000000     -5.069290000000000     -0.204310000000000
H       2.227780000000000     -3.358330000000000      0.298880000000000
H       6.974920000000000     -6.535720000000000     -0.592420000000000
C       7.360700000000000     -5.667600000000000      1.385850000000000
C       7.604680000000000     -5.763340000000000     -0.104610000000000
C       7.746500000000000     -6.980200000000000      2.046370000000000
H       7.964650000000000     -4.837920000000000      1.807710000000000
H       6.290450000000000     -5.448890000000000      1.567730000000000
H       7.136730000000000     -7.801250000000000      1.610110000000000
H       8.822210000000000     -7.183000000000000      1.851770000000000
C       7.508320000000000     -6.919040000000000      3.546490000000000
H       8.680740000000000     -5.891090000000000     -0.343860000000000
H       8.119400000000001     -6.108580000000000      3.998230000000000
H       6.433860000000000     -6.728760000000000      3.755700000000000
H       7.800080000000000     -7.888560000000000      3.998280000000000
C       7.749270000000000     -2.204880000000000     -6.037920000000000
C       9.013030000000001     -1.785780000000000     -5.709990000000000
C       8.970570000000000     -1.285910000000000     -4.413520000000000
C       7.716340000000000     -1.415320000000000     -3.957560000000000
N       6.896360000000000     -1.972290000000000     -4.951090000000000
C       7.154310000000000     -0.984490000000000     -2.616190000000000
N       7.635930000000000     -1.718500000000000     -1.433810000000000
C       8.909090000000001     -1.457380000000000     -0.744940000000000
H       9.874590000000000     -1.839860000000000     -6.363310000000000
H       7.438640000000000     -2.644450000000000     -6.975500000000000
H       9.810210000000000     -0.859920000000000     -3.896220000000000
H       6.062130000000000     -1.190040000000000     -2.665480000000000
H       7.251320000000000      0.106960000000000     -2.482290000000000
C       9.329310000000000      0.007270000000000     -0.892630000000000
C       8.686080000000000     -1.754730000000000      0.750640000000000
C      10.000460000000000     -2.423410000000000     -1.249380000000000
H       8.515739999999999      0.663330000000000     -0.512770000000000
H      10.252660000000001      0.207610000000000     -0.313160000000000
H       9.521530000000000      0.255980000000000     -1.952410000000000
H       8.364100000000001     -2.806050000000000      0.892930000000000
H       9.619400000000001     -1.601720000000000      1.334510000000000
H       7.892750000000000     -1.101530000000000      1.172140000000000
H       9.723420000000001     -3.481100000000000     -1.042170000000000
H      10.167389999999999     -2.342260000000000     -2.332430000000000
H      10.964399999999999     -2.219340000000000     -0.736110000000000
C       6.717910000000000     -5.137730000000000     -4.146790000000000
C       4.768540000000000     -3.926030000000000     -3.596750000000000
O       5.924030000000000     -4.583820000000000     -3.115700000000000
C       8.200720000000000     -5.007290000000000     -3.791070000000000
C       3.692650000000000     -4.919310000000000     -3.983180000000000
H       6.473360000000000     -6.215170000000000     -4.237090000000000
H       6.565010000000000     -4.646960000000000     -5.132100000000000
H       4.383450000000000     -3.273840000000000     -2.787700000000000
H       4.969170000000000     -3.242600000000000     -4.438080000000000
H       3.459340000000000     -5.576080000000000     -3.120490000000000
H       2.781170000000000     -4.364460000000000     -4.287200000000000
H       4.047140000000000     -5.531950000000000     -4.836610000000000
H       8.497790000000000     -3.946910000000000     -3.696750000000000
H       8.425700000000001     -5.509890000000000     -2.829030000000000
H       8.821190000000000     -5.469910000000000     -4.585920000000000

-C 0
6-31g(d,p)
****
-H 0
6-31g(d,p)
****
-Mg 0
6-31g(d,p)
****
-N 0
6-31+g(d,p)
****
-Na 0
6-31g(d,p)
****
-O 0
6-31+g(d,p)
****


