%chk=lowest10_c1_a1_speciation3_speciationDFT37b_rank07_E120.57.chk
%nprocshared=20
%mem=40GB
#p opt=loose PM7/gen scf=xqc 

lowest10_c1_a1_speciation3_speciationDFT37b_rank07_E120.57 DFT input

0 1
Na     -0.259180000000000     -0.279370000000000      0.010400000000000
C       0.314970000000000      0.253790000000000      3.053470000000000
C      -1.390330000000000     -1.356130000000000      2.885940000000000
O      -0.676590000000000     -0.329130000000000      2.232920000000000
C       1.644830000000000     -0.483470000000000      2.926350000000000
C      -2.628460000000000     -0.785300000000000      3.564620000000000
H       0.467370000000000      1.294300000000000      2.699520000000000
H      -0.000600000000000      0.332020000000000      4.116260000000000
H      -1.717550000000000     -2.084700000000000      2.112410000000000
H      -0.764330000000000     -1.929940000000000      3.604810000000000
H      -3.264780000000000     -0.263190000000000      2.818240000000000
H      -3.213510000000000     -1.607650000000000      4.025300000000000
H      -2.335170000000000     -0.064860000000000      4.355360000000000
H       1.970900000000000     -0.513270000000000      1.866310000000000
H       2.417290000000000      0.051430000000000      3.516370000000000
H       1.558180000000000     -1.520510000000000      3.309450000000000
C      -0.971530000000000     -0.649090000000000     -3.087020000000000
C      -2.931620000000000     -0.494960000000000     -1.814490000000000
O      -1.544610000000000     -0.741680000000000     -1.800990000000000
C      -0.594330000000000      0.790340000000000     -3.431820000000000
C      -3.423660000000000     -0.460560000000000     -0.370980000000000
H      -0.033310000000000     -1.243050000000000     -3.066740000000000
H      -1.612320000000000     -1.105930000000000     -3.872820000000000
H      -3.168520000000000      0.488620000000000     -2.273670000000000
H      -3.464020000000000     -1.311550000000000     -2.347890000000000
H      -2.909290000000000      0.346680000000000      0.193700000000000
H      -4.517280000000000     -0.273880000000000     -0.342220000000000
H      -3.211300000000000     -1.430420000000000      0.126880000000000
H       0.060990000000000      1.215210000000000     -2.643790000000000
H      -0.045050000000000      0.806860000000000     -4.396350000000000
H      -1.497620000000000      1.424560000000000     -3.532300000000000
C       1.482790000000000     -2.765410000000000     -0.877790000000000
C       2.934050000000000     -0.921060000000000     -0.993190000000000
O       1.609610000000000     -1.361140000000000     -0.781010000000000
C       1.655210000000000     -3.420570000000000      0.488460000000000
C       3.157020000000000     -0.589380000000000     -2.463810000000000
H       0.455630000000000     -2.986020000000000     -1.239380000000000
H       2.177420000000000     -3.210650000000000     -1.624660000000000
H       3.078380000000000      0.005880000000000     -0.400180000000000
H       3.695480000000000     -1.643630000000000     -0.623530000000000
H       2.419640000000000      0.169110000000000     -2.801620000000000
H       4.179370000000000     -0.179750000000000     -2.600600000000000
H       3.047610000000000     -1.500840000000000     -3.086410000000000
H       0.912270000000000     -3.011700000000000      1.206030000000000
H       1.495830000000000     -4.515530000000000      0.396050000000000
H       2.677250000000000     -3.239910000000000      0.880360000000000
C       1.425410000000000      2.703450000000000     -0.387820000000000
C      -0.753270000000000      2.832470000000000      0.482000000000000
O       0.281400000000000      1.984580000000000      0.023920000000000
C       2.395800000000000      2.889440000000000      0.773630000000000
C      -1.679630000000000      3.227310000000000     -0.662260000000000
H       1.932490000000000      2.103790000000000     -1.172260000000000
H       1.175540000000000      3.679120000000000     -0.860420000000000
H      -1.350020000000000      2.263540000000000      1.226710000000000
H      -0.370530000000000      3.731750000000000      1.013690000000000
H      -2.096580000000000      2.320910000000000     -1.143910000000000
H      -2.518590000000000      3.837290000000000     -0.266840000000000
H      -1.131840000000000      3.819360000000000     -1.423110000000000
H       2.675600000000000      1.904700000000000      1.203170000000000
H       3.315090000000000      3.393870000000000      0.409540000000000
H       1.936520000000000      3.511960000000000      1.568390000000000
Mg      6.488320000000000     -2.215460000000000      9.316430000000000
C       4.717570000000000     -1.051220000000000     11.708740000000001
C       6.658540000000000     -2.165120000000000     12.532579999999999
O       5.598990000000000     -2.152260000000000     11.599360000000001
C       5.388220000000000      0.309480000000000     11.523090000000000
C       6.172560000000000     -2.484480000000000     13.937130000000000
H       3.996250000000000     -1.159270000000000     10.878010000000000
H       4.104560000000000     -1.100120000000000     12.630490000000000
H       7.342160000000000     -2.983990000000000     12.218620000000000
H       7.275310000000000     -1.243620000000000     12.501709999999999
H       5.551810000000000     -3.404870000000000     13.914660000000000
H       7.046200000000000     -2.648080000000000     14.601279999999999
H       5.576070000000000     -1.639690000000000     14.335960000000000
H       6.054510000000000      0.296320000000000     10.637940000000000
H       4.607500000000000      1.084050000000000     11.371890000000000
H       5.974530000000000      0.581370000000000     12.422779999999999
H       8.253320000000000     -0.419650000000000      8.660660000000000
C       9.374160000000000     -2.245520000000000      9.062650000000000
C       8.307130000000001     -1.229720000000000      9.415220000000000
C       9.041570000000000     -2.937650000000000      7.736000000000000
H      10.340590000000001     -1.707290000000000      8.998049999999999
H       9.431080000000000     -3.016490000000000      9.863440000000001
H       8.126440000000001     -3.554480000000000      7.857330000000000
H       8.850180000000000     -2.184730000000000      6.942580000000000
C      10.194520000000001     -3.825780000000000      7.286240000000000
H       8.473599999999999     -0.802470000000000     10.424320000000000
H      11.095920000000000     -3.199240000000000      7.114880000000000
H      10.422599999999999     -4.594700000000000      8.054250000000000
H       9.929259999999999     -4.332380000000000      6.334660000000000
C       6.302590000000000     -5.644320000000000      7.666130000000000
C       6.471110000000000     -5.500120000000000      9.031409999999999
C       5.499060000000000     -4.615180000000000      9.455010000000000
C       4.821000000000000     -4.249230000000000      8.370979999999999
N       5.327960000000000     -4.925840000000000      7.248400000000000
C       3.684520000000000     -3.260750000000000      8.303890000000001
N       4.152440000000000     -1.883300000000000      8.540509999999999
C       4.318510000000000     -0.993990000000000      7.364330000000000
H       7.234340000000000     -5.966180000000000      9.642640000000000
H       6.903540000000000     -6.261110000000000      7.015160000000000
H       5.340630000000000     -4.278690000000000     10.467020000000000
H       2.938610000000000     -3.524800000000000      9.083660000000000
H       3.185320000000000     -3.358960000000000      7.326490000000000
C       2.964040000000000     -0.747200000000000      6.671820000000000
C       4.843440000000000      0.363590000000000      7.874030000000000
C       5.343620000000000     -1.555300000000000      6.355810000000000
H       2.218200000000000     -0.385880000000000      7.411200000000000
H       3.072630000000000      0.021220000000000      5.877450000000000
H       2.570470000000000     -1.658480000000000      6.182400000000000
H       5.842090000000000      0.247650000000000      8.342530000000000
H       4.949240000000000      1.093770000000000      7.041200000000000
H       4.152290000000000      0.794530000000000      8.630010000000000
H       6.350850000000000     -1.634970000000000      6.817250000000000
H       5.044090000000000     -2.555980000000000      5.989390000000000
H       5.425390000000000     -0.885190000000000      5.471850000000000

-C 0
6-31g(d,p)
****
-H 0
6-31g(d,p)
****
-Mg 0
6-31g(d,p)
****
-N 0
6-31+g(d,p)
****
-Na 0
6-31g(d,p)
****
-O 0
6-31+g(d,p)
****


