%chk=lowest10_c1_a1_speciation3_speciationDFT96_rank09_E142.47.chk
%nprocshared=20
%mem=40GB
#p opt=loose PM7/gen scf=xqc 

lowest10_c1_a1_speciation3_speciationDFT96_rank09_E142.47 DFT input

0 1
Na     -0.032590000000000      0.148120000000000     -0.357190000000000
C      -2.487780000000000      1.441920000000000      1.111450000000000
C      -2.369280000000000      2.327730000000000     -1.063460000000000
O      -1.682000000000000      1.658250000000000     -0.028880000000000
C      -3.238890000000000      0.116700000000000      1.018790000000000
C      -2.177360000000000      3.833200000000000     -0.934250000000000
H      -1.811680000000000      1.389180000000000      1.989640000000000
H      -3.184680000000000      2.284800000000000      1.308390000000000
H      -1.928590000000000      1.998720000000000     -2.029750000000000
H      -3.448390000000000      2.061060000000000     -1.110270000000000
H      -1.094330000000000      4.081180000000000     -0.943970000000000
H      -2.672480000000000      4.346210000000000     -1.784270000000000
H      -2.622140000000000      4.197370000000000      0.014350000000000
H      -2.527560000000000     -0.722140000000000      0.871790000000000
H      -3.797070000000000     -0.054330000000000      1.963260000000000
H      -3.960710000000000      0.131590000000000      0.177180000000000
C       2.592680000000000     -1.018790000000000     -1.759110000000000
C       2.414940000000000      1.282630000000000     -2.156600000000000
O       1.743070000000000      0.107610000000000     -1.765970000000000
C       3.345990000000000     -1.147030000000000     -0.436280000000000
C       1.459280000000000      2.458570000000000     -1.979720000000000
H       1.943130000000000     -1.914070000000000     -1.860380000000000
H       3.284010000000000     -1.035990000000000     -2.629980000000000
H       3.306530000000000      1.475210000000000     -1.522150000000000
H       2.705070000000000      1.223720000000000     -3.227630000000000
H       1.146680000000000      2.546380000000000     -0.916870000000000
H       1.952910000000000      3.404520000000000     -2.284860000000000
H       0.552220000000000      2.309310000000000     -2.603150000000000
H       2.632460000000000     -1.148650000000000      0.413360000000000
H       3.911480000000000     -2.102210000000000     -0.425270000000000
H       4.064290000000000     -0.313130000000000     -0.304750000000000
C      -1.088540000000000     -2.351450000000000     -1.979220000000000
C      -0.776350000000000     -3.124420000000000      0.218030000000000
O      -0.609610000000000     -2.051270000000000     -0.683850000000000
C      -2.545450000000000     -1.926830000000000     -2.131020000000000
C       0.466040000000000     -4.007050000000000      0.233850000000000
H      -0.481920000000000     -1.768660000000000     -2.705090000000000
H      -0.954300000000000     -3.422220000000000     -2.250960000000000
H      -0.910720000000000     -2.692530000000000      1.231500000000000
H      -1.692660000000000     -3.722440000000000      0.015280000000000
H       1.362760000000000     -3.402650000000000      0.486480000000000
H       0.345290000000000     -4.803370000000000      0.997430000000000
H       0.617330000000000     -4.479240000000000     -0.758330000000000
H      -2.652730000000000     -0.841550000000000     -1.919520000000000
H      -2.880690000000000     -2.121370000000000     -3.171550000000000
H      -3.192110000000000     -2.498990000000000     -1.434460000000000
C       0.905840000000000     -0.677880000000000      2.852660000000000
C       1.129260000000000      1.579310000000000      2.238070000000000
O       0.718440000000000      0.286810000000000      1.837960000000000
C      -0.339150000000000     -0.796060000000000      3.725370000000000
C       2.595030000000000      1.814700000000000      1.893760000000000
H       1.076500000000000     -1.655950000000000      2.356290000000000
H       1.810670000000000     -0.484970000000000      3.470520000000000
H       0.520370000000000      2.316750000000000      1.672650000000000
H       0.935920000000000      1.778550000000000      3.315440000000000
H       2.760550000000000      1.669290000000000      0.808130000000000
H       2.878230000000000      2.854580000000000      2.160220000000000
H       3.240950000000000      1.109570000000000      2.452710000000000
H      -1.225180000000000     -1.038900000000000      3.102050000000000
H      -0.193500000000000     -1.607380000000000      4.468800000000000
H      -0.527700000000000      0.154390000000000      4.264940000000000
Mg     10.092950000000000      1.535740000000000      3.540480000000000
C      12.336100000000000     -0.807910000000000      4.874840000000000
C      10.043960000000000     -1.312920000000000      5.303790000000000
O      10.980029999999999     -0.573120000000000      4.542600000000000
C      12.807140000000000     -2.224710000000000      4.561440000000000
C      10.052690000000000     -0.964470000000000      6.789990000000000
H      12.935320000000001     -0.115180000000000      4.245260000000000
H      12.565440000000001     -0.534230000000000      5.922280000000000
H       9.040929999999999     -1.033050000000000      4.924880000000000
H      10.128399999999999     -2.403540000000000      5.122610000000000
H       9.962730000000001      0.133080000000000      6.926400000000000
H       9.190379999999999     -1.458690000000000      7.284050000000000
H      10.979900000000001     -1.327840000000000      7.274960000000000
H      12.592520000000000     -2.482750000000000      3.504980000000000
H      13.903100000000000     -2.284490000000000      4.728460000000000
H      12.316000000000001     -2.957340000000000      5.231620000000000
H      12.691960000000000      2.740350000000000      4.339820000000000
C      11.747270000000000      2.640460000000000      6.318060000000000
C      11.708119999999999      2.899470000000000      4.827560000000000
C      12.691179999999999      3.630850000000000      6.978590000000000
H      10.726780000000000      2.748650000000000      6.739940000000000
H      12.093030000000001      1.604300000000000      6.500030000000000
H      13.707110000000000      3.513260000000000      6.542340000000000
H      12.328980000000000      4.663850000000000      6.784000000000000
C      12.757320000000000      3.393960000000000      8.478710000000000
H      11.280830000000000      3.895290000000000      4.588330000000000
H      11.749919999999999      3.517930000000000      8.930479999999999
H      13.129759999999999      2.368300000000000      8.687920000000000
H      13.451079999999999      4.131360000000000      8.930529999999999
C       8.551830000000001      1.245640000000000     -1.105770000000000
C       7.555950000000000      2.129440000000000     -0.778240000000000
C       7.143740000000000      1.842730000000000      0.518110000000000
C       7.884250000000000      0.821950000000000      0.974250000000000
N       8.777180000000000      0.390980000000000     -0.018570000000000
C       7.792990000000000      0.120190000000000      2.315980000000000
N       8.188829999999999      0.904220000000000      3.498110000000000
C       7.326680000000000      1.876420000000000      4.187660000000000
H       7.171890000000000      2.902470000000000     -1.431740000000000
H       9.088649999999999      1.196850000000000     -2.042840000000000
H       6.354580000000000      2.356440000000000      1.034900000000000
H       8.517460000000000     -0.722590000000000      2.266150000000000
H       6.799410000000000     -0.341960000000000      2.449990000000000
C       5.848880000000000      1.508480000000000      4.039210000000000
C       7.695590000000000      1.831770000000000      5.683030000000000
C       7.617380000000000      3.304350000000000      3.682690000000000
H       5.685700000000000      0.475640000000000      4.417670000000000
H       5.211770000000000      2.207950000000000      4.616570000000000
H       5.544160000000000      1.552050000000000      2.978580000000000
H       8.767080000000000      2.078560000000000      5.825210000000000
H       7.096400000000000      2.563570000000000      6.266840000000000
H       7.526490000000000      0.818090000000000      6.104380000000000
H       8.671900000000001      3.593350000000000      3.889660000000000
H       7.463200000000000      3.407710000000000      2.599500000000000
H       6.958650000000000      4.037190000000000      4.195850000000000
C      11.609730000000001      1.819140000000000      0.785230000000000
C      11.535230000000000     -0.474710000000000      1.335120000000000
O      11.527210000000000      0.854740000000000      1.816340000000000
C      10.755120000000000      3.037790000000000      1.141040000000000
C      12.933439999999999     -0.909860000000000      0.948730000000000
H      12.665070000000000      2.146160000000000      0.694870000000000
H      11.261080000000000      1.441280000000000     -0.200060000000000
H      11.163080000000001     -1.134240000000000      2.144190000000000
H      10.842750000000001     -0.642510000000000      0.493900000000000
H      13.618850000000000     -0.783620000000000      1.811470000000000
H      12.908730000000000     -1.976640000000000      0.644690000000000
H      13.286860000000001     -0.296600000000000      0.095330000000000
H       9.688269999999999      2.764520000000000      1.235260000000000
H      11.077909999999999      3.483870000000000      2.103120000000000
H      10.845510000000001      3.806500000000000      0.346250000000000

-C 0
6-31g(d,p)
****
-H 0
6-31g(d,p)
****
-Mg 0
6-31g(d,p)
****
-N 0
6-31+g(d,p)
****
-Na 0
6-31g(d,p)
****
-O 0
6-31+g(d,p)
****


