%chk=speciation1.chk
%nprocshared=16
%mem=32GB
#p opt=loose wb97xd/gen scf=xqc 

 speciation study

1 1
Na         1.02311       -0.03320        0.09145
C         -1.86766       -0.29458        1.35550
C         -1.86526       -0.88064       -0.88310
O         -1.29689       -0.03320        0.09145
C         -1.21380        0.59582        2.39998
C         -1.23160       -0.59884       -2.23571
H         -2.95126       -0.03547        1.34052
H         -1.73028       -1.35780        1.65499
H         -1.71398       -1.95451       -0.62974
H         -2.95674       -0.66311       -0.98344
H         -0.14822       -0.83253       -2.19566
H         -1.70850       -1.23405       -3.01210
H         -1.37096        0.46833       -2.50784
H         -1.33206        1.66469        2.12137
H         -1.69073        0.42677        3.38865
H         -0.13545        0.35432        2.47738
C          3.91309        0.77637        1.09722
C          3.91609        0.27551       -1.16097
O          3.34311       -0.03320        0.09145
C          3.26403        0.45494        2.43395
C          3.27673       -0.58863       -2.23634
H          4.99806        0.54369        1.19932
H          3.77035        1.85963        0.88100
H          3.76687        1.34608       -1.42502
H          5.00294        0.02931       -1.14981
H          2.19548       -0.35905       -2.31014
H          3.75578       -0.38215       -3.21716
H          3.40732       -1.66448       -1.99087
H          3.38944       -0.62332        2.67130
H          3.74017        1.05628        3.23697
H          2.18442        0.69952        2.39672

-H 0
6-31g(d,p)
****
-Na 0
6-31g(d,p)
****
-C 0
6-31g(d,p)
****
-O 0
6-31+g(d,p)
****


