%chk=speciation2.chk
%nprocshared=16
%mem=32GB
#p opt=loose wb97xd/gen scf=xqc 

 speciation study

1 1
Na         0.93168        0.41899       -0.20670
C          0.60562        0.14639       -3.18697
C         -1.46949        0.59234       -2.18378
O         -0.15716        0.08721       -1.99001
C          0.83512        1.56449       -3.73078
C         -2.28819        0.45950       -0.91559
H          1.59765       -0.29424       -2.96751
H          0.15431       -0.50459       -3.96936
H         -1.46833        1.67090       -2.44109
H         -1.99446       -0.00020       -2.96834
H         -1.83364        1.08029       -0.12029
H         -3.31981        0.83115       -1.09283
H         -2.34568       -0.60299       -0.60776
H          1.28743        2.20834       -2.94897
H          1.51980        1.51768       -4.60361
H         -0.10755        2.02303       -4.09430
C          0.44328        1.25029        2.58622
C         -0.88517       -0.66844        2.04488
O         -0.15965        0.45945        1.57383
C          1.29560        0.47770        3.60043
C         -2.19533       -0.24292        2.71909
H          1.11062        1.96387        2.06377
H         -0.31308        1.88329        3.09249
H         -1.14443       -1.29829        1.17477
H         -0.28258       -1.32816        2.69775
H         -2.81726        0.35138        2.01717
H         -2.76969       -1.14048        3.02960
H         -1.99710        0.36816        3.62422
H          2.02245       -0.17628        3.08009
H          1.84305        1.19626        4.24357
H          0.66161       -0.14036        4.26898
C          3.58432       -0.98637       -0.56792
C          3.72381        0.94547        0.83914
O          3.04355        0.28484       -0.22013
C          3.80495       -1.97003        0.59128
C          5.10506        1.45782        0.42703
H          2.86169       -1.46295       -1.26041
H          4.51735       -0.85662       -1.15622
H          3.13514        1.83988        1.11445
H          3.78978        0.32861        1.75567
H          5.01045        2.16505       -0.42307
H          5.56885        1.99073        1.28513
H          5.77573        0.62230        0.14115
H          2.86610       -2.11614        1.15940
H          4.13396       -2.94753        0.17772
H          4.61383       -1.62736        1.26998

-H 0
6-31g(d,p)
****
-Na 0
6-31g(d,p)
****
-C 0
6-31g(d,p)
****
-O 0
6-31+g(d,p)
****


