%chk=speciation4.chk
%nprocshared=16
%mem=32GB
#p opt=loose PM7 scf=xqc 

 speciation study

-1 1
O          1.00760       -1.36879        0.55004
C          1.23726       -1.82244        1.95901
C          1.71622       -1.06503        3.19302
C          0.09772       -2.82080        2.37859
C          2.43343       -2.66372        1.75185
H          1.13142       -0.17395        3.38479
H         -0.68050       -2.79743        1.65652
H          0.46028       -3.84890        2.47712
H         -0.21503       -2.65088        3.43337
H          1.69800       -1.66691        4.07846
H          2.82809       -0.84013        3.19300
H          2.05033       -3.34311        1.04681
H          3.17663       -2.08109        1.24513
H          2.91531       -3.17437        2.62787
U          1.62100        0.00000       -0.20800
O          2.91299       -2.12829       -1.02381
O          4.06656        0.00000       -1.14801
C          5.31728        0.01448       -0.37120
C          3.40524       -3.43910       -1.51785
C          3.61745       -4.48536       -0.24816
C          2.81574       -3.41064       -2.97704
C          4.86924       -3.76822       -2.02448
C          5.64972        1.30301        0.43418
C          5.47778       -1.16807        0.59348
H          2.97070       -4.91768        0.53263
H          3.98948       -5.49570       -0.52334
H          4.36658       -4.05884        0.45606
H          1.80466       -3.11016       -3.22669
H          3.10112       -4.24438       -3.64837
H          3.27403       -2.52305       -3.46352
H          5.23941       -3.30630       -2.95242
H          5.68936       -3.78251       -1.28300
H          4.81360       -4.86035       -2.35095
H          5.34544        1.23032        1.47924
H          6.73799        1.37069        0.65389
C          6.46811       -0.08944       -1.38815
H          5.35069        2.24091       -0.07082
H          6.38443       -1.00255       -2.00638
H          6.49056        0.81036       -2.03853
H          7.45168       -0.13631       -0.85825
H          5.30976       -2.11609        0.07608
H          6.48936       -1.19785        1.04703
H          4.84122       -1.04703        1.47734
O         -1.25900        0.00000        0.89900
C         -1.75362        0.65764        2.20004
C         -1.04146        1.42208        3.38009
C         -2.62185        1.95673        1.78918
C         -2.30568       -0.48669        3.13016
H         -0.90396        2.50772        3.27438
H         -3.13663        2.43996        2.65410
H         -3.42570        2.09917        1.07135
H         -1.93755        2.68549        1.33414
H         -1.80430        1.64860        4.17637
H         -0.33962        0.91947        4.02850
H         -3.04473       -1.18711        2.78812
H         -1.44150       -1.05391        3.47263
H         -2.79818       -0.16395        4.07346
O          0.86400        1.24700        0.27000
C          1.75079        1.93414        1.24856
C          2.51949        2.75399        0.26986
C          1.20605        2.90522        2.32399
C          2.91573        1.25685        1.91444
H          1.69948        3.22648        0.01124
H          1.10102        2.37366        3.28702
H          1.98148        3.62169        2.66704
H          0.35244        3.51454        1.97337
H          3.25652        3.49847        0.64033
H          2.85235        2.23457       -0.64717
H          2.79554        1.09933        2.98078
H          3.31018        0.44889        1.29276
H          3.67576        2.03304        2.16723
U         -0.63100       -1.04800       -0.03900
O         -2.05204       -3.22946       -0.33271
O          0.43721       -2.83061       -1.63450
C          0.16903       -4.41375       -1.65793
C         -3.33204       -3.94538        0.22379
C         -3.33473       -3.89991        1.78572
C         -4.72395       -3.56458       -0.54085
C         -3.55564       -5.51806        0.04785
C          0.91513       -5.22654       -0.57820
C         -1.20862       -5.08662       -1.51127
H         -2.73336       -3.08958        2.16960
H         -4.35782       -3.84789        2.21372
H         -2.80501       -4.76222        2.25164
H         -4.59331       -2.98103       -1.47303
H         -5.51833       -3.17413        0.13362
H         -5.34285       -4.38735       -0.96362
H         -3.65630       -5.82693       -1.01787
H         -2.83498       -6.19227        0.55011
H         -4.52426       -5.81780        0.52862
H          0.78293       -4.78776        0.42251
H          0.53673       -6.25609       -0.36410
C          0.47724       -5.16415       -3.01639
H          1.82297       -5.63728       -1.00463
H         -0.10440       -4.76955       -3.87001
H          1.51043       -5.36518       -3.24682
H          0.26040       -6.26527       -2.97196
H         -2.00439       -4.67046       -2.16081
H         -1.28112       -6.19834       -1.63957
H         -1.34701       -5.19074       -0.43061
O         -0.02903       -0.12947       -1.81480
C         -0.89333       -0.00670       -3.01080
C         -2.40457        0.29764       -2.94103
C         -0.36498        1.07714       -3.95285
C         -0.84843       -1.37311       -3.73423
H         -2.61708        1.33533       -2.59972
H          0.71950        0.95663       -4.14819
H         -0.90876        1.06510       -4.91919
H         -0.57321        2.08041       -3.53614
H         -2.85899        0.29823       -3.95904
H         -2.97294       -0.51015       -2.45381
H          0.19250       -1.64560       -3.98670
H         -1.31445       -2.15304       -3.09372
H         -1.43968       -1.36096       -4.67610
U         -0.63100        1.04800       -0.03900
O         -3.17524        0.70933       -0.56487
O          0.43721        2.83061       -1.63450
C          0.26378        4.32742       -1.45502
C         -4.23472        0.02601        0.18719
C         -3.68622       -1.25107        0.33549
C         -4.94431        0.40908        1.58791
C         -5.47839       -0.06454       -0.72137
C         -1.15000        4.67735       -1.00254
C          1.25062        5.26049       -0.53641
H         -2.77938       -1.40300        0.83524
H         -4.35335       -1.80831        0.97912
H         -3.42125       -1.54073       -0.68481
H         -5.55451        1.32549        1.55193
H         -5.65276       -0.40359        1.89558
H         -4.37834        0.47417        2.51267
H         -5.96201        0.93376       -0.77007
H         -5.24110       -0.40515       -1.74359
H         -6.22861       -0.77543       -0.29408
H         -1.31322        4.23522       -0.00768
H         -1.25241        5.78441       -0.87716
C          0.56396        4.97730       -2.82636
H         -1.91165        4.34153       -1.72506
H          1.61577        4.73365       -3.11954
H         -0.11119        4.63704       -3.62699
H          0.51532        6.09427       -2.77408
H          2.28146        5.39068       -0.95611
H          1.65156        5.10138        0.48180
H          0.66422        5.79251        0.24445

