%chk=speciation7.chk
%nprocshared=16
%mem=32GB
#p opt=loose PM7 scf=xqc 

 speciation study

-1 1
O 0.86300 -1.24700 0.27000
C 1.13026 -2.32441 1.42699
C 0.60347 -3.75526 1.06117
C 2.61165 -2.56371 1.60370
C 0.71172 -2.42006 2.98771
H 1.02720 -4.15805 0.17427
H 2.90924 -2.19635 2.58904
H 2.96892 -3.60396 1.69720
H 3.20611 -1.96388 0.97781
H 0.89560 -4.53359 1.82012
H -0.48233 -3.86268 1.09888
H 0.96598 -1.67738 3.76260
H -0.20919 -2.89509 3.14872
H 1.27871 -3.23627 3.50233
U -0.63100 -1.04800 -0.03900
O -2.05204 -3.22946 -0.33271
O 0.43721 -2.83061 -1.63450
C 1.92818 -1.83215 -2.85462
C -3.37557 -3.63589 0.19946
C -4.57242 -2.89797 -0.42192
C -3.64724 -5.13792 -0.09740
C -3.52721 -3.54356 1.71323
C 3.52765 -0.74026 -2.46277
C 3.06625 -2.64226 -3.96168
H -4.60512 -2.99600 -1.52511
H -5.54495 -3.24750 -0.01253
H -4.55873 -1.86297 -0.11930
H -3.03656 -5.81263 0.53915
H -4.71068 -5.38812 0.15835
H -3.51238 -5.40007 -1.16322
H -2.72917 -4.10395 2.24793
H -3.61039 -2.50064 1.97326
H -4.50251 -3.96226 2.05527
H 4.55535 -1.00954 -2.81542
H 3.41999 -0.01572 -1.57175
C 2.38531 -0.31891 -3.52765
H 4.42165 -1.00938 -1.81375
H 2.75972 -0.38558 -4.60406
H 1.86841 0.59421 -3.02033
H 2.64629 0.83681 -3.52102
H 2.92239 -2.90614 -5.01878
H 3.97018 -2.08665 -4.30608
H 3.74632 -3.45125 -3.72436
O 0.86400 1.24700 0.27000
C 1.17824 2.50928 1.30063
C 1.95624 1.89313 2.09162
C 2.35313 3.80255 1.70982
C -0.06979 2.99512 1.96652
H 2.83616 1.78166 1.33109
H 2.35479 4.88220 1.54580
H 2.48818 3.98937 2.82669
H 3.44143 3.62431 1.43636
H 1.97337 2.40102 3.09014
H 2.13131 1.46752 3.11312
H -0.07104 3.53823 2.94177
H -0.93846 2.75070 1.39505
H -0.10988 2.47578 2.95286
O -1.25900 0.00000 0.89900
C -1.31918 0.07274 2.46235
C -0.01076 0.37124 2.97270
C -2.15019 1.21051 3.21883
C -1.94335 -1.13766 3.30882
H 0.38277 0.00906 2.04667
H -3.18225 0.99551 3.49135
H -1.79194 1.33253 4.27224
H -2.20599 2.21385 2.85218
H 0.18543 0.32373 4.06669
H 0.90911 -0.15193 2.82970
H -3.04088 -1.10901 3.47296
H -1.89599 -2.14101 2.97030
H -1.61261 -1.10406 4.37556
U -0.63100 1.04800 -0.03900
O -3.17524 0.70933 -0.56487
O 0.43721 2.83061 -1.63450
C 0.30955 4.33489 -1.49829
C -4.20204 1.15032 0.36476
C -3.92192 2.59811 0.74732
C -5.64416 1.13201 -0.19836
C -4.37396 0.18502 1.53693
C 0.98992 4.90017 -0.30490
C 1.05749 5.19416 -2.61265
H -4.09437 3.25356 -0.12920
H -4.55849 2.93703 1.59333
H -2.88606 2.74002 0.98329
H -5.95939 0.10416 -0.48887
H -6.35035 1.44475 0.61885
H -5.79825 1.81505 -1.04592
H -5.05298 -0.67122 1.41173
H -3.46229 -0.33646 1.61834
H -4.85804 0.65996 2.41462
H 2.02330 4.53117 -0.43146
H 1.09427 6.00299 -0.18648
C -1.12119 4.84689 -1.43548
H 0.40997 4.77002 0.60513
H -1.61603 4.63591 -2.39662
H -1.66940 4.40115 -0.58397
H -1.10836 5.95895 -1.28891
H 0.39526 5.59887 -3.39026
H 1.95869 4.75074 -3.03774
H 1.46152 6.17949 -2.22227
O -1.38139 -1.04781 -2.14525
C -2.37995 -0.22016 -3.02579
C -2.29558 -0.68949 -1.87370
C -2.52412 1.45375 -3.28056
C -3.57158 -0.92178 -3.86963
H -1.65375 0.59155 -1.55559
H -1.96119 1.91407 -4.11236
H -3.57997 1.74445 -3.40689
H -2.13397 2.18246 -2.53390
H -3.47303 -0.68388 -1.93044
H -3.02945 -1.37190 -1.25811
H -3.64014 -0.51669 -4.90522
H -3.43890 -2.02291 -3.90022
H -4.55896 -0.62941 -3.47634
O 2.91428 2.12760 -1.02355
C 4.31903 2.45365 -1.44172
C 4.93713 1.86780 -2.77371
C 4.45351 3.97769 -1.58226
C 5.32958 2.09728 -0.40988
H 4.34454 1.95631 -3.69641
H 4.22258 4.49649 -0.63265
H 5.49184 4.28081 -1.85557
H 3.82821 4.33195 -2.39575
H 5.90222 2.38309 -3.00173
H 5.36853 0.86279 -2.65780
H 5.14023 2.58741 0.55549
H 5.23925 1.01634 -0.43632
H 6.37495 2.38011 -0.70168
U 1.62100 0.00000 -0.20800
O 3.01918 -0.00056 2.00774
O 2.91299 -2.12829 -1.02381
C 3.20437 -3.70005 -1.36520
C 4.52441 -0.35237 2.42146
C 5.74120 0.52295 1.96631
C 4.62480 -0.22215 3.96665
C 5.21760 -1.79647 2.16982
C 2.17304 -4.53741 -2.44745
C 4.78790 -3.74170 -1.67019
H 5.77706 1.58042 2.27972
H 6.68242 0.21719 2.48100
H 6.16383 0.18100 1.00749
H 4.02103 -0.99039 4.48475
H 5.67503 -0.40128 4.32328
H 4.35938 0.79382 4.31755
H 4.85756 -2.64407 2.78683
H 5.30188 -2.07239 1.09593
H 6.28018 -1.84553 2.50990
H 2.69498 -5.24663 -3.13294
H 1.67843 -4.26058 -3.40078
C 3.26856 -5.00360 -0.43756
H 1.23461 -4.93875 -2.00954
H 3.92446 -4.99567 0.43979
H 2.35166 -5.59446 -0.23324
H 3.73084 -5.83238 -1.06256
H 5.38933 -3.80306 -0.72807
H 5.27167 -2.90261 -2.17897
H 5.09102 -4.62359 -2.28451
O 0.22282 0.00056 -2.42374
C 0.06294 -0.26014 -4.19687
C 0.31329 -1.80905 -4.75963
C -1.16120 -0.31551 -5.25371
C 0.77272 0.87524 -5.18198
H -0.17274 -2.61808 -4.16728
H -1.73173 0.56518 -5.46486
H -0.88229 -0.45129 -6.33133
H -1.77497 -1.23796 -5.22312
H 0.16511 -2.10802 -5.83183
H 1.24589 -2.05213 -5.11207
H 0.18172 1.79750 -5.26588
H 1.78001 1.33871 -5.16949
H 0.98748 0.41233 -6.18563

