%chk=speciation5.chk
%nprocshared=16
%mem=32GB
#p opt=loose PM7 scf=xqc 

 speciation study

-1 1
O 0.86300 -1.24700 0.27000
C 1.86297 -2.11824 1.28321
C 2.16348 -1.36703 2.56405
C 1.58134 -3.81710 1.28936
C 3.47900 -2.46491 1.25300
H 2.19041 -2.22722 3.22956
H 1.18643 -4.21721 0.36174
H 2.15832 -4.43130 2.05530
H 0.84998 -4.50668 1.80130
H 3.17408 -1.08410 2.95913
H 1.76040 -0.35464 2.46398
H 4.28434 -2.68765 2.00662
H 4.12686 -2.84944 0.51468
H 3.45460 -3.28411 2.03660
U 1.62100 0.00000 -0.20800
O 2.91299 -2.12829 -1.02381
O 4.06656 0.00000 -1.14801
C 5.34285 0.16747 -0.32397
C 3.10579 -3.84871 -1.21368
C 3.48711 -5.01443 -0.03345
C 2.07392 -4.94731 -1.93744
C 4.45555 -4.12378 -1.97679
C 5.60929 1.39787 0.62854
C 5.68866 -0.99051 0.58856
H 3.72048 -4.91699 1.00539
H 2.99223 -6.04428 -0.07281
H 4.55254 -5.24229 0.06978
H 2.68577 -5.76267 -2.39783
H 1.38739 -5.52309 -1.27207
H 1.44466 -5.05455 -2.80274
H 4.52418 -3.83308 -3.01982
H 5.31333 -3.75446 -1.38036
H 4.69732 -5.23359 -2.05941
H 5.12919 1.34534 1.63095
H 6.64572 1.35868 1.03839
C 6.52064 0.23656 -1.30761
H 5.53339 2.38018 0.13957
H 6.55084 -0.64835 -1.96161
H 6.48512 1.16845 -1.89897
H 7.49909 0.25169 -0.74268
H 5.78875 -1.91151 -0.00830
H 6.65239 -0.90462 1.11729
H 5.01328 -0.89293 1.44481
O -1.25900 0.00000 0.89900
C -1.68983 0.64825 2.55546
C -0.80429 1.73212 3.14855
C -3.18539 1.39972 3.27515
C -1.96053 -0.33638 3.81202
H -1.05176 2.71228 2.69863
H -4.03057 0.75401 3.63228
H -3.12269 1.84727 4.27512
H -4.02262 2.02784 2.92030
H -1.08061 2.02889 4.20626
H 0.22026 1.39863 3.34538
H -2.81557 -1.01282 3.83131
H -1.39316 -0.01375 4.71910
H -2.39274 -0.02117 4.80923
O -0.82600 0.00000 -1.15400
C -1.46003 0.19227 -2.63686
C -2.98869 0.64409 -2.95521
C -0.73735 1.25188 -3.49124
C -1.63830 -1.10588 -3.50477
H -3.24844 1.66289 -2.58124
H 0.35177 1.19712 -3.52559
H -1.07839 1.20489 -4.55536
H -1.05490 2.26130 -3.16753
H -3.20179 0.74164 -4.03140
H -3.72381 -0.08572 -2.66492
H -0.87214 -1.33916 -4.24116
H -2.08185 -1.87390 -2.87034
H -2.35861 -1.12836 -4.35053
U -0.63100 1.04800 -0.03900
O -3.17524 0.70933 -0.56487
O 0.43721 2.83061 -1.63450
C 0.54446 4.33931 -1.45631
C -3.98795 1.07426 0.61402
C -3.94158 -0.30531 1.53643
C -3.17752 2.49782 0.74050
C -5.38705 1.32223 0.35857
C -0.79727 4.96483 -0.96034
C 1.84755 5.02265 -0.71324
H -2.93027 -0.69303 1.90592
H -4.58658 -0.65746 2.43456
H -3.49858 -1.33818 1.25491
H -3.58311 3.12961 -0.03514
H -3.56616 3.25282 1.46588
H -2.65815 2.97502 1.60409
H -5.62532 2.31510 -0.02347
H -5.63497 0.64121 -0.46861
H -6.01337 1.04840 1.21350
H -1.24122 4.60380 -0.02383
H -0.66621 6.05532 -0.78901
C 0.81654 4.96733 -2.83192
H -1.57883 4.81262 -1.72876
H 1.79700 4.61860 -3.22545
H 0.03042 4.77198 -3.56324
H 0.91046 6.09056 -2.72941
H 2.78950 4.87061 -1.25533
H 1.67990 6.11278 -0.61214
H 2.29922 4.87945 0.27695
O 0.86400 1.24700 0.27000
C 1.75872 2.32457 0.30534
C 2.61450 2.22869 -1.16897
C 0.76432 3.21896 1.09014
C 2.91992 2.12391 1.23993
H 2.50940 1.23762 -1.62345
H 0.89836 2.95044 2.17071
H 0.94081 4.27640 1.53655
H -0.20217 3.15287 0.79061
H 3.52821 2.82341 -1.31680
H 2.31844 2.29546 -2.23983
H 2.78515 2.27905 2.31915
H 3.22540 1.08860 1.10588
H 3.62218 2.95400 0.96695
O -3.17515 -0.70912 -0.56520
C -4.30475 -1.86891 -0.60034
C -3.74111 -3.26528 -0.88939
C -5.36026 -2.18530 0.61048
C -5.45368 -1.70343 -1.71638
H -2.93984 -3.51503 -0.16742
H -6.29230 -2.75281 0.37606
H -4.92238 -2.79412 1.43523
H -5.93289 -1.31053 0.99409
H -4.52712 -4.05495 -0.76186
H -3.48035 -3.36247 -1.95021
H -6.23632 -0.95093 -1.49486
H -5.14225 -1.64209 -2.76653
H -6.10739 -2.61834 -1.73016
U -0.63100 -1.04800 -0.03900
O -0.29980 -2.82798 1.85477
O 0.43721 -2.83061 -1.63450
C 0.53368 -2.70327 -2.96722
C -0.48147 -2.88306 3.37443
C 0.14171 -1.71725 4.26091
C -1.92483 -3.27832 3.68662
C 0.28345 -4.03349 4.14716
C 1.10424 -1.20579 -3.04265
C -0.65314 -3.85327 -2.85296
H 0.22042 -0.77417 3.69754
H -0.33514 -1.66827 5.24841
H 1.14212 -1.72682 4.74304
H -2.10006 -4.33300 3.45878
H -2.15204 -3.13135 4.78127
H -2.66402 -2.81064 3.04553
H -0.03458 -5.04127 3.86121
H 1.39048 -4.00395 4.11032
H 0.06752 -3.95527 5.24638
H 0.84475 -0.54969 -2.26495
H 2.17462 -1.05521 -2.80935
C 1.76385 -3.15914 -3.95698
H 1.09106 -0.73165 -4.03931
H 1.97557 -4.15502 -4.38254
H 1.74403 -2.60841 -4.91989
H 2.76042 -2.86616 -3.55155
H -0.95612 -4.50792 -3.66177
H -0.46474 -4.69091 -2.07101
H -1.49396 -3.61599 -2.15583

