%chk=THF.chk
# hf/3-21g geom=connectivity

Title Card Required

0 1
 C                 -1.96895623    1.52733117    0.00000000
 O                 -0.53858523    1.52733117    0.00000000
 C                 -0.03659423    2.86672117    0.00000000
 C                 -1.21314923    3.83688817   -0.00000100
 C                 -2.46450023    2.96953017   -0.00000100
 H                 -2.29311723    0.96835217   -0.91513200
 H                 -2.29311723    0.96835217    0.91513200
 H                  0.60024477    2.97422017    0.91536000
 H                  0.60024477    2.97422017   -0.91536000
 H                 -1.18176223    4.49608017    0.90190200
 H                 -1.18176023    4.49607917   -0.90190500
 H                 -3.09277923    3.17148417    0.90190200
 H                 -3.09277923    3.17148317   -0.90190500

 1 2 1.0 5 1.0 6 1.0 7 1.0
 2 3 1.0
 3 4 1.0 8 1.0 9 1.0
 4 5 1.0 10 1.0 11 1.0
 5 12 1.0 13 1.0
 6
 7
 8
 9
 10
 11
 12
 13

