%chk=speciation1.chk
%nprocshared=16
%mem=32GB
#p opt=loose wb97xd/gen scf=xqc 

 speciation study

2 1
Na         1.03922       -0.07516        0.05304
C         -1.73497        0.91862        0.94671
C         -1.78940       -1.33769        0.43327
O         -1.28078       -0.07516        0.05304
C         -1.18723        2.27338        0.52253
C         -1.25685       -2.40433       -0.51096
H         -2.84871        0.97592        0.93614
H         -1.38388        0.70777        1.98228
H         -1.47839       -1.59710        1.46987
H         -2.89973       -1.34012        0.36684
H         -0.14853       -2.44781       -0.45309
H         -1.67187       -3.39579       -0.22555
H         -1.55986       -2.17801       -1.55568
H         -1.53158        2.52202       -0.50337
H         -1.54578        3.05778        1.22133
H         -0.07769        2.25707        0.54098
C          3.91758       -0.99469        0.96779
C          3.92662        1.20337        0.24293
O          3.35922       -0.07516        0.05304
C          3.27646       -2.35749        0.76878
C          3.29777        2.18662       -0.73349
H          5.00661       -1.11407        0.76553
H          3.75531       -0.67039        2.02052
H          3.76057        1.57313        1.28038
H          5.01636        1.17163        0.01571
H          2.21114        2.28264       -0.52995
H          3.77466        3.18323       -0.61921
H          3.44387        1.83530       -1.77677
H          3.41923       -2.69953       -0.27760
H          3.74529       -3.09353        1.45351
H          2.18701       -2.30237        0.99018
Na        -2.04018        0.36257       -1.78702

-H 0
6-31g(d,p)
****
-Na 0
6-31g(d,p)
****
-C 0
6-31g(d,p)
****
-O 0
6-31+g(d,p)
****


