%chk=lowest10_c2_a1_speciation0_speciation0_speciationDFT11_rank01_E129.58.chk
%nprocshared=20
%mem=40GB
#p opt=loose PM7/gen scf=xqc 

lowest10_c2_a1_speciation0_speciation0_speciationDFT11_rank01_E129.58 DFT input

0 1
Na      1.588000000000000     -0.985350000000000      0.916430000000000
C      -0.261520000000000      0.635430000000000     -1.487930000000000
C      -1.419150000000000      0.634970000000000      0.517980000000000
O      -0.237360000000000      0.235300000000000     -0.137070000000000
C       1.036690000000000      0.180770000000000     -2.143160000000000
C      -1.338200000000000      0.177510000000000      1.969300000000000
H      -1.107770000000000      0.155140000000000     -2.029610000000000
H      -0.320260000000000      1.744330000000000     -1.573540000000000
H      -1.521760000000000      1.744010000000000      0.511380000000000
H      -2.311770000000000      0.156360000000000      0.054970000000000
H      -0.456240000000000      0.638250000000000      2.464220000000000
H      -2.254900000000000      0.476680000000000      2.519250000000000
H      -1.236240000000000     -0.928240000000000      2.014520000000000
H       1.128680000000000     -0.923710000000000     -2.075820000000000
H       1.054120000000000      0.478230000000000     -3.212470000000000
H       1.905700000000000      0.642580000000000     -1.627030000000000
Na    -11.022000000000000     -9.804539999999999     -6.697930000000000
C      -7.647040000000000     -9.028940000000000     -6.001830000000000
C      -9.004390000000001     -7.912550000000000     -4.504620000000000
O      -8.978130000000000     -8.798209999999999     -5.600260000000000
C      -7.662280000000000     -9.983590000000000     -7.187080000000000
C     -10.454499999999999     -7.688790000000000     -4.101120000000000
H      -7.160160000000000     -8.081890000000000     -6.328800000000000
H      -7.062250000000000     -9.506259999999999     -5.182800000000000
H      -8.466329999999999     -8.345510000000001     -3.630600000000000
H      -8.571160000000001     -6.925620000000000     -4.783000000000000
H     -10.922870000000000     -8.655410000000000     -3.816810000000000
H     -10.506560000000000     -6.994150000000000     -3.236790000000000
H     -11.020820000000001     -7.250910000000000     -4.950960000000000
H      -8.236789999999999     -9.536490000000001     -8.026579999999999
H      -6.625270000000000    -10.186570000000000     -7.527000000000000
H      -8.141080000000001    -10.942850000000000     -6.895000000000000
Mg     -0.726130000000000     -6.211370000000000     -0.151430000000000
H      -1.184190000000000     -4.489660000000000     -2.379970000000000
C       0.943150000000000     -4.371970000000000     -1.970150000000000
C      -0.498940000000000     -4.506170000000000     -1.503100000000000
C       1.342240000000000     -5.402050000000000     -3.037860000000000
H       1.073450000000000     -3.361710000000000     -2.407540000000000
H       1.589280000000000     -4.466240000000000     -1.078390000000000
H       1.187870000000000     -6.440110000000000     -2.673780000000000
H       0.724370000000000     -5.246920000000000     -3.947920000000000
C       2.809250000000000     -5.217610000000000     -3.426730000000000
H      -0.762090000000000     -3.650030000000000     -0.852340000000000
H       2.987020000000000     -4.181590000000000     -3.787160000000000
H       3.464010000000000     -5.405100000000000     -2.554090000000000
H       3.088750000000000     -5.927440000000000     -4.232990000000000
C      -1.588200000000000     -9.267170000000000     -5.308300000000000
C      -0.801460000000000     -8.150630000000000     -5.131790000000000
C      -1.637140000000000     -7.107710000000000     -4.778000000000000
C      -2.884460000000000     -7.579380000000000     -4.725940000000000
N      -2.933250000000000     -8.945819999999999     -5.055230000000000
C      -4.090480000000000     -6.764480000000000     -4.376710000000000
N      -3.945770000000000     -6.211230000000000     -3.026750000000000
C      -4.853860000000000     -5.111750000000000     -2.618060000000000
H       0.274020000000000     -8.107760000000001     -5.249990000000000
H      -1.237070000000000    -10.249129999999999     -5.588970000000000
H      -1.344050000000000     -6.089430000000000     -4.572780000000000
H      -4.178020000000000     -5.969030000000000     -5.139420000000000
H      -4.990780000000000     -7.413280000000000     -4.415510000000000
C      -6.310910000000000     -5.606750000000000     -2.660490000000000
C      -4.510290000000000     -4.709330000000000     -1.177820000000000
C      -4.702730000000000     -3.856030000000000     -3.511400000000000
H      -6.423930000000000     -6.510600000000000     -2.023640000000000
H      -7.008010000000000     -4.823700000000000     -2.292840000000000
H      -6.608340000000000     -5.866400000000000     -3.697040000000000
H      -3.467590000000000     -4.330350000000000     -1.119200000000000
H      -5.188150000000000     -3.902330000000000     -0.819670000000000
H      -4.613920000000000     -5.580330000000000     -0.499930000000000
H      -3.662820000000000     -3.466950000000000     -3.480230000000000
H      -4.979610000000000     -4.050720000000000     -4.566110000000000
H      -5.384270000000000     -3.050050000000000     -3.157580000000000
Mg     -2.124170000000000     -6.597830000000000     -2.056490000000000
H      -1.649300000000000     -8.328049999999999      0.163460000000000
C      -1.629010000000000     -9.600140000000000     -1.594500000000000
C      -2.162070000000000     -8.402609999999999     -0.821590000000000
C      -0.098780000000000     -9.609790000000000     -1.732160000000000
H      -1.929620000000000    -10.522589999999999     -1.056300000000000
H      -2.108570000000000     -9.590270000000000     -2.590290000000000
H       0.267310000000000     -8.683470000000000     -2.224110000000000
H       0.360800000000000     -9.684200000000001     -0.723530000000000
C       0.350440000000000    -10.823380000000000     -2.546020000000000
H      -3.244460000000000     -8.533239999999999     -0.630010000000000
H      -0.012920000000000    -11.761680000000000     -2.074500000000000
H      -0.053240000000000    -10.765860000000000     -3.575140000000000
H       1.458120000000000    -10.861380000000000     -2.605990000000000
C       3.504900000000000     -6.095980000000000      0.115540000000000
C       2.812920000000000     -7.262950000000000     -0.121400000000000
C       1.723240000000000     -7.277560000000000      0.729290000000000
C       1.745090000000000     -6.151680000000000      1.445290000000000
N       2.852390000000000     -5.350680000000000      1.112990000000000
C       0.733980000000000     -5.782230000000000      2.485330000000000
N      -0.598210000000000     -5.695400000000000      1.879830000000000
C      -1.777490000000000     -5.680810000000000      2.779840000000000
H       3.080980000000000     -8.023199999999999     -0.844240000000000
H       4.407890000000000     -5.783730000000000     -0.387910000000000
H       0.977730000000000     -8.054140000000000      0.806950000000000
H       0.778380000000000     -6.557350000000000      3.272350000000000
H       1.005130000000000     -4.797970000000000      2.921300000000000
C      -1.709170000000000     -4.446030000000000      3.697110000000000
C      -3.043330000000000     -5.585430000000000      1.918120000000000
C      -1.882870000000000     -6.964870000000000      3.639080000000000
H      -1.631800000000000     -3.522090000000000      3.084140000000000
H      -2.616530000000000     -4.374250000000000      4.334290000000000
H      -0.826820000000000     -4.498670000000000      4.368400000000000
H      -3.129680000000000     -6.473770000000000      1.256710000000000
H      -3.954490000000000     -5.544050000000000      2.556180000000000
H      -3.013570000000000     -4.672150000000000      1.290280000000000
H      -1.955360000000000     -7.869090000000000      2.998090000000000
H      -1.024920000000000     -7.084690000000000      4.329380000000000
H      -2.791200000000000     -6.922610000000000      4.281320000000000

-C 0
6-31g(d,p)
****
-H 0
6-31g(d,p)
****
-Mg 0
6-31g(d,p)
****
-N 0
6-31+g(d,p)
****
-Na 0
6-31g(d,p)
****
-O 0
6-31+g(d,p)
****


