%chk=lowest10_c2_a1_speciation3_speciation3_speciationDFT133_rank03_E239.47.chk
%nprocshared=20
%mem=40GB
#p opt=loose PM7/gen scf=xqc 

lowest10_c2_a1_speciation3_speciation3_speciationDFT133_rank03_E239.47 DFT input

0 1
Na      0.225180000000000     -0.050150000000000      0.284480000000000
C      -2.218000000000000      1.428370000000000      1.584310000000000
C      -0.688570000000000      0.883040000000000      3.285540000000000
O      -1.121860000000000      0.623440000000000      1.968030000000000
C      -1.753880000000000      2.742920000000000      0.963010000000000
C      -1.406050000000000     -0.034930000000000      4.266960000000000
H      -2.785270000000000      0.868970000000000      0.812090000000000
H      -2.928560000000000      1.608630000000000      2.419340000000000
H       0.400560000000000      0.664350000000000      3.331950000000000
H      -0.801010000000000      1.951090000000000      3.575760000000000
H      -1.235290000000000     -1.097320000000000      3.989960000000000
H      -1.016270000000000      0.137520000000000      5.291280000000000
H      -2.496230000000000      0.169230000000000      4.258030000000000
H      -1.085030000000000      2.548760000000000      0.099180000000000
H      -2.638330000000000      3.310420000000000      0.604300000000000
H      -1.213550000000000      3.361270000000000      1.708100000000000
C       2.599560000000000     -1.737470000000000     -1.022660000000000
C       1.902450000000000     -2.737490000000000      0.978060000000000
O       1.904890000000000     -1.567370000000000      0.193450000000000
C       1.699220000000000     -2.326310000000000     -2.107010000000000
C       1.001470000000000     -2.497550000000000      2.185720000000000
H       2.910310000000000     -0.726350000000000     -1.361530000000000
H       3.535100000000000     -2.325780000000000     -0.899830000000000
H       1.492470000000000     -3.605800000000000      0.418980000000000
H       2.928040000000000     -2.959650000000000      1.343350000000000
H      -0.035210000000000     -2.270320000000000      1.855880000000000
H       0.979410000000000     -3.397580000000000      2.834520000000000
H       1.379340000000000     -1.636920000000000      2.777700000000000
H       0.784380000000000     -1.709510000000000     -2.223940000000000
H       2.244730000000000     -2.336540000000000     -3.073780000000000
H       1.406220000000000     -3.365930000000000     -1.858720000000000
C       2.447540000000000      2.113390000000000     -0.317930000000000
C       0.957030000000000      2.229260000000000     -2.131750000000000
O       1.315340000000000      1.548800000000000     -0.947930000000000
C       2.031990000000000      3.163980000000000      0.706780000000000
C       1.636850000000000      1.595680000000000     -3.339970000000000
H       2.974460000000000      1.296530000000000      0.220290000000000
H       3.180570000000000      2.531120000000000     -1.043440000000000
H      -0.141110000000000      2.128280000000000     -2.256610000000000
H       1.160980000000000      3.321980000000000     -2.081730000000000
H       1.381810000000000      0.516630000000000     -3.402230000000000
H       1.289660000000000      2.098410000000000     -4.266550000000000
H       2.738260000000000      1.701960000000000     -3.263740000000000
H       1.351970000000000      2.715760000000000      1.462290000000000
H       2.934050000000000      3.551150000000000      1.225820000000000
H       1.515640000000000      4.010330000000000      0.209050000000000
C      -1.960010000000000     -0.447940000000000     -2.342880000000000
C      -2.349270000000000     -1.770880000000000     -0.439700000000000
O      -1.545610000000000     -0.769250000000000     -1.031420000000000
C      -2.976950000000000      0.688750000000000     -2.328920000000000
C      -1.788710000000000     -3.159850000000000     -0.724210000000000
H      -1.063960000000000     -0.105280000000000     -2.901200000000000
H      -2.350940000000000     -1.328120000000000     -2.899410000000000
H      -2.329660000000000     -1.611720000000000      0.659780000000000
H      -3.417240000000000     -1.701720000000000     -0.743380000000000
H      -0.743870000000000     -3.231380000000000     -0.362830000000000
H      -2.399910000000000     -3.919320000000000     -0.194000000000000
H      -1.808950000000000     -3.376590000000000     -1.811450000000000
H      -2.555030000000000      1.578180000000000     -1.815590000000000
H      -3.232560000000000      0.968290000000000     -3.372370000000000
H      -3.903190000000000      0.376090000000000     -1.805190000000000
Na      6.609340000000000    -13.917830000000000     -5.407790000000000
C       9.532940000000000    -14.962640000000000     -6.087210000000000
C       8.920870000000001    -13.323570000000000     -7.653280000000000
O       8.470770000000000    -14.256050000000000     -6.693900000000000
C      10.045290000000000    -14.227340000000000     -4.852980000000000
C       8.920480000000000    -13.960310000000000     -9.035600000000001
H       9.135190000000000    -15.946360000000000     -5.761750000000000
H      10.361330000000001    -15.183109999999999     -6.796130000000000
H       8.210350000000000    -12.468700000000000     -7.655380000000000
H       9.919219999999999    -12.893940000000001     -7.411610000000000
H       7.903490000000000    -14.336499999999999     -9.277480000000001
H       9.218570000000000    -13.207720000000000     -9.794300000000000
H       9.635990000000000    -14.807729999999999     -9.065840000000000
H       9.214779999999999    -14.055289999999999     -4.137380000000000
H      10.824100000000000    -14.841939999999999     -4.355050000000000
H      10.488420000000000    -13.250389999999999     -5.134670000000000
C       3.541910000000000    -13.054900000000000     -4.803520000000000
C       3.876800000000000    -13.367830000000000     -7.096430000000000
O       4.488850000000000    -13.144380000000000     -5.846510000000000
C       3.197320000000000    -14.433970000000000     -4.245870000000000
C       4.969230000000000    -13.631060000000000     -8.126849999999999
H       4.011790000000000    -12.468930000000000     -3.985230000000000
H       2.627990000000000    -12.494380000000000     -5.102110000000000
H       3.215380000000000    -14.260690000000000     -7.075810000000000
H       3.305310000000000    -12.468280000000000     -7.411900000000000
H       5.562260000000000    -14.526249999999999     -7.840690000000000
H       4.517060000000000    -13.807140000000000     -9.125120000000001
H       5.652670000000000    -12.757820000000001     -8.189679999999999
H       4.121120000000000    -14.963250000000000     -3.934440000000000
H       2.539810000000000    -14.320830000000001     -3.361150000000000
H       2.665040000000000    -15.046830000000000     -5.000610000000000
C       6.895270000000000    -11.354369999999999     -3.540110000000000
C       7.101310000000000    -13.175520000000001     -2.074930000000000
O       6.815900000000000    -12.757940000000000     -3.393300000000000
C       8.293200000000001    -10.940670000000001     -3.985150000000000
C       5.815400000000000    -13.283450000000000     -1.265680000000000
H       6.174340000000000    -11.056030000000000     -4.330830000000000
H       6.591370000000000    -10.804370000000000     -2.620660000000000
H       7.567490000000000    -14.181200000000000     -2.132870000000000
H       7.843420000000000    -12.522510000000000     -1.561820000000000
H       5.107410000000000    -13.975840000000000     -1.767840000000000
H       6.045120000000000    -13.675739999999999     -0.253350000000000
H       5.337070000000000    -12.287179999999999     -1.167420000000000
H       8.556710000000001    -11.451919999999999     -4.935380000000000
H       8.320980000000000     -9.843030000000001     -4.149200000000000
H       9.041290000000000    -11.206260000000000     -3.209820000000000
C       6.479100000000000    -16.870220000000000     -3.533940000000000
C       6.348280000000000    -17.097560000000001     -5.865160000000000
O       6.487890000000000    -16.202529999999999     -4.779200000000000
C       7.896680000000000    -17.239149999999999     -3.112910000000000
C       4.879450000000000    -17.279430000000001     -6.227580000000000
H       6.059550000000000    -16.171559999999999     -2.780210000000000
H       5.816620000000000    -17.765010000000000     -3.525880000000000
H       6.870070000000000    -16.653179999999999     -6.739320000000000
H       6.836180000000000    -18.081389999999999     -5.681690000000000
H       4.422780000000000    -16.296830000000000     -6.460050000000000
H       4.794830000000000    -17.933420000000002     -7.120450000000000
H       4.324910000000000    -17.744479999999999     -5.387100000000000
H       8.533270000000000    -16.330490000000001     -3.077750000000000
H       7.875100000000000    -17.701660000000000     -2.104180000000000
H       8.338630000000000    -17.961690000000001     -3.829340000000000
Mg     -1.638600000000000     -9.302450000000000      0.708540000000000
C      -4.559950000000000     -9.454470000000001      1.586810000000000
C      -3.542240000000000    -10.893290000000000      3.146170000000000
O      -3.389330000000000    -10.135000000000000      1.973830000000000
C      -4.539820000000000     -8.017659999999999      2.080790000000000
C      -2.149410000000000    -11.193600000000000      3.682220000000000
H      -4.584580000000000     -9.440070000000000      0.477740000000000
H      -5.482160000000000     -9.956970000000000      1.914970000000000
H      -4.111580000000000    -10.350669999999999      3.933360000000000
H      -4.032840000000000    -11.853380000000000      2.903830000000000
H      -1.644120000000000    -10.248830000000000      3.969940000000000
H      -2.210140000000000    -11.863260000000000      4.564450000000000
H      -1.535160000000000    -11.682869999999999      2.898060000000000
H      -3.642420000000000     -7.493910000000000      1.688560000000000
H      -5.449500000000000     -7.493070000000000      1.718520000000000
H      -4.526970000000000     -7.995630000000000      3.189550000000000
H      -0.215060000000000     -7.910880000000000      2.628000000000000
C       1.484550000000000     -8.330170000000001      1.298590000000000
C       0.302810000000000     -8.765240000000000      2.144840000000000
C       1.066590000000000     -7.323890000000000      0.218880000000000
H       2.235380000000000     -7.871650000000000      1.971180000000000
H       1.925700000000000     -9.229590000000000      0.817350000000000
H       0.338010000000000     -7.784180000000000     -0.472660000000000
H       0.591600000000000     -6.434690000000000      0.686610000000000
C       2.274230000000000     -6.875090000000000     -0.594050000000000
H       0.581190000000000     -9.543939999999999      2.882120000000000
H       3.020460000000000     -6.396640000000000      0.074230000000000
H       2.740090000000000     -7.747110000000000     -1.101950000000000
H       1.958540000000000     -6.140030000000000     -1.364140000000000
C      -2.154490000000000     -7.169650000000000     -1.386890000000000
C      -2.391810000000000     -7.032260000000000     -2.736690000000000
C      -2.421490000000000     -8.311430000000000     -3.265960000000000
C      -2.186410000000000     -9.172680000000000     -2.214870000000000
N      -2.021100000000000     -8.469939999999999     -1.089720000000000
C      -2.133400000000000    -10.671250000000001     -2.279630000000000
N      -1.586790000000000    -11.255599999999999     -1.038460000000000
C      -0.226120000000000    -11.830710000000000     -1.152100000000000
H      -2.526120000000000     -6.102050000000000     -3.269690000000000
H      -2.073930000000000     -6.372120000000000     -0.659320000000000
H      -2.580820000000000     -8.580880000000001     -4.299780000000000
H      -3.160590000000000    -11.026560000000000     -2.415320000000000
H      -1.588290000000000    -10.995279999999999     -3.182290000000000
C       0.760710000000000    -10.821999999999999     -1.772960000000000
C       0.290550000000000    -12.166779999999999      0.260070000000000
C      -0.270040000000000    -13.136450000000000     -1.969480000000000
H       0.771360000000000     -9.899710000000001     -1.164960000000000
H       1.786990000000000    -11.243180000000001     -1.799710000000000
H       0.492600000000000    -10.544639999999999     -2.809740000000000
H      -0.344500000000000    -12.915609999999999      0.753360000000000
H       1.317720000000000    -12.591320000000000      0.214410000000000
H       0.313590000000000    -11.265330000000001      0.903240000000000
H      -0.973090000000000    -13.859220000000001     -1.504180000000000
H      -0.599080000000000    -12.961690000000001     -3.011350000000000
H       0.733080000000000    -13.606120000000001     -2.007120000000000
Mg     -3.652260000000000    -12.733160000000000     -0.053160000000000
C      -4.359570000000000    -15.252060000000000     -1.704390000000000
C      -3.361540000000000    -14.030840000000000     -3.485190000000000
O      -3.737900000000000    -14.052870000000000     -2.122690000000000
C      -3.389650000000000    -16.425370000000001     -1.610030000000000
C      -4.524330000000000    -14.216550000000000     -4.458740000000000
H      -4.765830000000000    -15.055070000000001     -0.695280000000000
H      -5.251230000000000    -15.508260000000000     -2.305870000000000
H      -2.963900000000000    -13.014950000000001     -3.678570000000000
H      -2.525610000000000    -14.730919999999999     -3.686790000000000
H      -5.345060000000000    -13.508649999999999     -4.217900000000000
H      -4.167660000000000    -14.018950000000000     -5.489680000000000
H      -4.903810000000000    -15.256720000000000     -4.430570000000000
H      -2.527540000000000    -16.173629999999999     -0.964830000000000
H      -3.917640000000000    -17.296800000000001     -1.169750000000000
H      -3.017420000000000    -16.706530000000001     -2.613730000000000
H      -1.853320000000000    -14.674880000000000      0.534810000000000
C      -3.339480000000000    -15.368570000000000      1.936640000000000
C      -2.580620000000000    -14.231769999999999      1.241150000000000
C      -2.409730000000000    -16.470199999999998      2.475790000000000
H      -3.946550000000000    -14.967390000000000      2.772250000000000
H      -4.014110000000000    -15.854580000000000      1.209470000000000
H      -3.044370000000000    -17.262879999999999      2.927950000000000
H      -1.842000000000000    -16.924689999999998      1.634130000000000
C      -1.423660000000000    -15.982989999999999      3.536160000000000
H      -2.010620000000000    -13.681319999999999      2.009420000000000
H      -0.716550000000000    -15.241080000000000      3.111180000000000
H      -1.968170000000000    -15.531700000000001      4.391630000000000
H      -0.829670000000000    -16.846129999999999      3.905260000000000
C      -7.949670000000000    -11.293519999999999      3.733320000000000
C      -8.910090000000000    -12.218019999999999      3.367410000000000
C      -8.331260000000000    -13.052080000000000      2.429440000000000
C      -7.099260000000000    -12.608990000000000      2.261580000000000
N      -6.858990000000000    -11.508319999999999      3.095110000000000
C      -6.091880000000000    -13.177429999999999      1.320420000000000
N      -5.637220000000000    -12.187049999999999      0.341800000000000
C      -6.580570000000000    -11.801920000000001     -0.760690000000000
H      -9.925400000000000    -12.269460000000000      3.733370000000000
H      -8.064180000000000    -10.490660000000000      4.444650000000000
H      -8.783709999999999    -13.885370000000000      1.913550000000000
H      -6.429180000000000    -14.109299999999999      0.826830000000000
H      -5.228550000000000    -13.454780000000000      1.933030000000000
C      -7.539180000000000    -10.699140000000000     -0.267950000000000
C      -5.798450000000000    -11.208170000000001     -1.943070000000000
C      -7.405410000000000    -12.991730000000000     -1.305230000000000
H      -6.968390000000000     -9.811000000000000      0.072150000000000
H      -8.214460000000001    -10.369990000000000     -1.086430000000000
H      -8.181290000000001    -11.041790000000001      0.559910000000000
H      -5.131890000000000    -11.968800000000000     -2.382630000000000
H      -6.492650000000000    -10.881679999999999     -2.751350000000000
H      -5.209710000000000    -10.321059999999999     -1.633290000000000
H      -6.740260000000000    -13.778829999999999     -1.708540000000000
H      -8.059680000000000    -13.429290000000000     -0.525680000000000
H      -8.073760000000000    -12.657950000000000     -2.128690000000000

-C 0
6-31g(d,p)
****
-H 0
6-31g(d,p)
****
-Mg 0
6-31g(d,p)
****
-N 0
6-31+g(d,p)
****
-Na 0
6-31g(d,p)
****
-O 0
6-31+g(d,p)
****


