%chk=lowest10_c2_a1_speciation0_speciation0_speciationDFT45_rank06_E145.06.chk
%nprocshared=20
%mem=40GB
#p opt=loose PM7/gen scf=xqc 

lowest10_c2_a1_speciation0_speciation0_speciationDFT45_rank06_E145.06 DFT input

0 1
Na     -0.001200000000000      2.185730000000000      0.000640000000000
C       0.577880000000000     -1.041480000000000      1.003180000000000
C      -0.580960000000000     -1.041540000000000     -1.003600000000000
O       0.001910000000000     -0.239530000000000     -0.002260000000000
C       1.187970000000000     -0.122220000000000      2.055250000000000
C      -1.186470000000000     -0.123100000000000     -2.058260000000000
H      -0.194150000000000     -1.670970000000000      1.501160000000000
H       1.391960000000000     -1.677050000000000      0.586730000000000
H       0.185840000000000     -1.678890000000000     -1.499740000000000
H      -1.399900000000000     -1.667370000000000     -0.583750000000000
H      -0.396850000000000      0.522290000000000     -2.499870000000000
H      -1.655580000000000     -0.721260000000000     -2.867270000000000
H      -1.960960000000000      0.526890000000000     -1.596880000000000
H       0.401300000000000      0.527840000000000      2.495360000000000
H       1.654540000000000     -0.719340000000000      2.866460000000000
H       1.965360000000000      0.523140000000000      1.592340000000000
Na    -12.170439999999999    -12.464540000000000     -4.985880000000000
C      -8.713240000000001    -11.802569999999999     -4.986660000000000
C      -9.867880000000000     -9.802920000000000     -4.987180000000000
O      -9.990100000000000    -11.206770000000001     -4.987160000000000
C      -8.888680000000001    -13.314180000000000     -4.985350000000000
C     -11.265510000000001     -9.199920000000001     -4.984340000000000
H      -8.143910000000000    -11.522550000000001     -5.901970000000000
H      -8.145970000000000    -11.522750000000000     -4.070470000000000
H      -9.338939999999999     -9.449940000000000     -4.072660000000000
H      -9.342129999999999     -9.450220000000000     -5.903620000000000
H     -11.819190000000001     -9.530200000000001     -4.079290000000000
H     -11.203390000000001     -8.091630000000000     -4.984680000000000
H     -11.822960000000000     -9.530640000000000     -5.886870000000000
H      -9.453290000000001    -13.631230000000000     -5.888300000000000
H      -7.897150000000000    -13.813219999999999     -4.985550000000000
H      -9.451770000000000    -13.629370000000000     -4.080680000000000
Mg     -3.090600000000000     -7.914840000000000     -4.451120000000000
H      -3.730040000000000     -4.626580000000000     -4.428560000000000
C      -3.214930000000000     -5.439170000000000     -2.449360000000000
C      -3.811180000000000     -5.563810000000000     -3.843560000000000
C      -1.733820000000000     -5.060960000000000     -2.524670000000000
H      -3.779810000000000     -4.663580000000000     -1.891720000000000
H      -3.321930000000000     -6.412980000000000     -1.922870000000000
H      -1.175240000000000     -5.846960000000000     -3.072890000000000
H      -1.622550000000000     -4.098670000000000     -3.068920000000000
C      -1.131280000000000     -4.912340000000000     -1.131640000000000
H      -4.863750000000000     -5.914390000000000     -3.794970000000000
H      -1.679630000000000     -4.134860000000000     -0.559790000000000
H      -1.184840000000000     -5.875200000000000     -0.580460000000000
H      -0.066550000000000     -4.608460000000000     -1.216560000000000
C      -1.125840000000000     -8.652509999999999     -2.130110000000000
C       0.186630000000000     -9.031350000000000     -1.906170000000000
C       0.780460000000000     -9.147330000000000     -3.147190000000000
C      -0.196360000000000     -8.837059999999999     -4.065150000000000
N      -1.352260000000000     -8.539930000000000     -3.447130000000000
C      -0.082060000000000     -8.805709999999999     -5.535830000000000
N      -0.754810000000000     -7.596570000000000     -6.026130000000000
C       0.076690000000000     -6.456740000000000     -6.417640000000000
H       0.657660000000000     -9.194450000000000     -0.947590000000000
H      -1.866210000000000     -8.450870000000000     -1.366440000000000
H       1.805750000000000     -9.429530000000000     -3.355620000000000
H      -0.670340000000000     -9.670330000000000     -5.872030000000000
H       0.950190000000000     -8.954549999999999     -5.914950000000000
C       0.667420000000000     -6.715640000000000     -7.814410000000000
C      -0.848380000000000     -5.230360000000000     -6.479280000000000
C       1.182930000000000     -6.173830000000000     -5.384790000000000
H      -0.147940000000000     -6.884580000000000     -8.553630000000000
H       1.272590000000000     -5.847830000000000     -8.149780000000000
H       1.316190000000000     -7.615090000000000     -7.811970000000000
H      -1.310600000000000     -5.041550000000000     -5.487990000000000
H      -0.293510000000000     -4.323410000000000     -6.795840000000000
H      -1.671500000000000     -5.391850000000000     -7.196000000000000
H       0.734620000000000     -6.030560000000000     -4.380150000000000
H       1.911720000000000     -7.006320000000000     -5.326010000000000
H       1.738500000000000     -5.254040000000000     -5.658840000000000
Mg     -2.114600000000000     -9.061719999999999     -7.461690000000000
H      -1.894590000000000    -11.078659999999999     -9.406040000000001
C       0.140360000000000    -10.842540000000000     -8.603310000000000
C      -1.226240000000000    -10.284440000000000     -9.018340000000000
C       0.016010000000000    -12.010500000000000     -7.618620000000000
H       0.663920000000000    -11.212350000000001     -9.510660000000000
H       0.746760000000000    -10.021089999999999     -8.163790000000001
H      -0.514540000000000    -11.702360000000001     -6.704480000000000
H      -0.558820000000000    -12.829359999999999     -8.101680000000000
C       1.384880000000000    -12.541800000000000     -7.202760000000000
H      -1.056730000000000     -9.538060000000000     -9.824430000000000
H       1.959710000000000    -12.877150000000000     -8.091490000000000
H       1.958880000000000    -11.753840000000000     -6.669150000000000
H       1.252260000000000    -13.406420000000001     -6.517860000000000
C      -4.445340000000000     -8.538660000000000    -10.475820000000001
C      -3.609970000000000     -7.457230000000000    -10.313490000000000
C      -3.642630000000000     -7.113460000000000     -8.977760000000000
C      -4.451460000000000     -7.961030000000000     -8.340070000000001
N      -5.002400000000000     -8.900309999999999     -9.236980000000001
C      -4.697420000000000     -7.954980000000000     -6.853920000000000
N      -3.777840000000000     -8.896340000000000     -6.181660000000000
C      -4.361100000000000    -10.155780000000000     -5.678680000000000
H      -3.029630000000000     -6.976990000000000    -11.090610000000000
H      -4.638000000000000     -9.045740000000000    -11.410640000000001
H      -3.082200000000000     -6.316490000000000     -8.525449999999999
H      -5.772520000000000     -8.106310000000001     -6.629480000000000
H      -4.454200000000000     -6.937900000000000     -6.479270000000000
C      -5.078000000000000    -10.939430000000000     -6.790210000000000
C      -3.214900000000000    -11.017530000000001     -5.138550000000000
C      -5.329480000000000     -9.865589999999999     -4.505620000000000
H      -4.375930000000000    -11.145230000000000     -7.626320000000000
H      -5.451850000000000    -11.907299999999999     -6.393230000000000
H      -5.951670000000000    -10.379730000000000     -7.180390000000000
H      -2.665000000000000    -10.489039999999999     -4.337070000000000
H      -3.593790000000000    -11.971159999999999     -4.716310000000000
H      -2.511260000000000    -11.250940000000000     -5.955630000000000
H      -4.807610000000000     -9.331469999999999     -3.682560000000000
H      -6.194670000000000     -9.245780000000000     -4.812220000000000
H      -5.726730000000000    -10.812500000000000     -4.086450000000000

-C 0
6-31g(d,p)
****
-H 0
6-31g(d,p)
****
-Mg 0
6-31g(d,p)
****
-N 0
6-31+g(d,p)
****
-Na 0
6-31g(d,p)
****
-O 0
6-31+g(d,p)
****


