%chk=lowest10_c2_a1_speciation3_speciation3_speciationDFT66b_rank08_E237.33.chk
%nprocshared=20
%mem=40GB
#p opt=loose PM7/gen scf=xqc 

lowest10_c2_a1_speciation3_speciation3_speciationDFT66b_rank08_E237.33 DFT input

0 1
Na      0.227990000000000     -0.305530000000000      0.031670000000000
C      -1.105000000000000     -0.958480000000000     -2.739690000000000
C       0.486250000000000     -2.622330000000000     -2.264430000000000
O       0.034000000000000     -1.315560000000000     -1.983840000000000
C      -2.392880000000000     -1.349230000000000     -2.020710000000000
C       1.530250000000000     -2.589360000000000     -3.372600000000000
H      -1.097330000000000      0.145670000000000     -2.849180000000000
H      -1.080330000000000     -1.371440000000000     -3.771240000000000
H       0.963670000000000     -3.020080000000000     -1.342490000000000
H      -0.341040000000000     -3.324510000000000     -2.510620000000000
H       2.371450000000000     -1.924040000000000     -3.082430000000000
H       1.922280000000000     -3.612590000000000     -3.546020000000000
H       1.079730000000000     -2.211800000000000     -4.313290000000000
H      -2.426220000000000     -0.890420000000000     -1.010930000000000
H      -3.263530000000000     -0.983870000000000     -2.604820000000000
H      -2.468710000000000     -2.451010000000000     -1.920840000000000
C       1.719970000000000      0.497030000000000      2.749320000000000
C       3.274230000000000     -0.205290000000000      1.145450000000000
O       1.921730000000000     -0.200520000000000      1.539520000000000
C       1.531330000000000      1.993470000000000      2.508930000000000
C       3.366130000000000     -0.839180000000000     -0.238770000000000
H       0.778580000000000      0.109780000000000      3.193500000000000
H       2.520980000000000      0.298090000000000      3.494930000000000
H       3.683270000000000      0.825070000000000      1.071010000000000
H       3.878100000000000     -0.813970000000000      1.851060000000000
H       2.768260000000000     -0.255310000000000     -0.971500000000000
H       4.421990000000000     -0.864850000000000     -0.579890000000000
H       2.972340000000000     -1.877260000000000     -0.209030000000000
H       0.714030000000000      2.164940000000000      1.778440000000000
H       1.262540000000000      2.489870000000000      3.464720000000000
H       2.463010000000000      2.454480000000000      2.124510000000000
C      -1.356820000000000     -1.891790000000000      2.264220000000000
C      -2.615280000000000      0.054740000000000      1.880890000000000
O      -1.423010000000000     -0.646610000000000      1.598970000000000
C      -1.924250000000000     -3.003950000000000      1.388820000000000
C      -2.417620000000000      0.984830000000000      3.071630000000000
H      -0.285180000000000     -2.114710000000000      2.454810000000000
H      -1.852760000000000     -1.875600000000000      3.260450000000000
H      -2.859490000000000      0.672250000000000      0.991620000000000
H      -3.488000000000000     -0.618210000000000      2.036410000000000
H      -1.574310000000000      1.680820000000000      2.877830000000000
H      -3.340880000000000      1.578390000000000      3.235750000000000
H      -2.198180000000000      0.398650000000000      3.987400000000000
H      -1.376410000000000     -3.048540000000000      0.423480000000000
H      -1.810110000000000     -3.978360000000000      1.908720000000000
H      -3.001380000000000     -2.829660000000000      1.188230000000000
C      -1.113810000000000      2.822240000000000     -0.547270000000000
C       0.757300000000000      2.224510000000000     -1.835640000000000
O      -0.164910000000000      1.818780000000000     -0.843560000000000
C      -2.346380000000000      2.680590000000000     -1.433600000000000
C       1.976700000000000      2.887120000000000     -1.205500000000000
H      -1.426810000000000      2.685130000000000      0.508820000000000
H      -0.691050000000000      3.849370000000000     -0.611650000000000
H       1.099180000000000      1.312940000000000     -2.370900000000000
H       0.299640000000000      2.883110000000000     -2.606920000000000
H       2.453130000000000      2.196300000000000     -0.482110000000000
H       2.713810000000000      3.136840000000000     -1.997050000000000
H       1.687070000000000      3.817910000000000     -0.677020000000000
H      -2.786620000000000      1.667670000000000     -1.321290000000000
H      -3.104550000000000      3.434340000000000     -1.135100000000000
H      -2.080510000000000      2.842060000000000     -2.498220000000000
Na     10.485569999999999     -1.387270000000000      2.583900000000000
C      11.398289999999999     -3.334320000000000      0.251520000000000
C       9.730770000000000     -1.895470000000000     -0.563830000000000
O      10.330620000000000     -2.468790000000000      0.578030000000000
C      12.717930000000001     -2.573030000000000      0.175450000000000
C       8.547590000000000     -2.742760000000000     -1.009730000000000
H      11.479889999999999     -4.083710000000000      1.066140000000000
H      11.212790000000000     -3.910570000000000     -0.681580000000000
H       9.358810000000000     -0.886690000000000     -0.281520000000000
H      10.447170000000000     -1.736640000000000     -1.401140000000000
H       7.821020000000000     -2.845710000000000     -0.175550000000000
H       8.043839999999999     -2.257960000000000     -1.871160000000000
H       8.893840000000001     -3.751920000000000     -1.314150000000000
H      12.909039999999999     -2.040640000000000      1.130140000000000
H      13.546290000000001     -3.289560000000000     -0.005390000000000
H      12.697870000000000     -1.835370000000000     -0.652530000000000
C       9.428649999999999      0.419400000000000      5.053380000000000
C       7.629940000000000     -0.383060000000000      3.793250000000000
O       9.016190000000000     -0.131230000000000      3.821250000000000
C       9.738970000000000     -0.671170000000000      6.076000000000000
C       7.304740000000000     -1.129650000000000      2.504590000000000
H      10.369820000000001      0.977290000000000      4.861990000000000
H       8.703120000000000      1.161550000000000      5.454790000000000
H       7.313530000000000     -1.026610000000000      4.642290000000000
H       7.063360000000000      0.573260000000000      3.797900000000000
H       7.858920000000000     -2.092020000000000      2.466020000000000
H       6.217760000000000     -1.343150000000000      2.452020000000000
H       7.595100000000000     -0.516900000000000      1.624870000000000
H      10.479889999999999     -1.385770000000000      5.662390000000000
H      10.166689999999999     -0.205400000000000      6.986760000000000
H       8.821230000000000     -1.224560000000000      6.360450000000000
C      12.217190000000000      1.274000000000000      2.371000000000000
C      13.591780000000000     -0.237100000000000      3.526280000000000
O      12.310770000000000      0.003450000000000      2.983170000000000
C      12.548900000000000      1.179530000000000      0.886250000000000
C      13.631209999999999      0.179780000000000      4.990730000000000
H      11.166860000000000      1.621240000000000      2.472410000000000
H      12.847510000000000      2.043610000000000      2.871430000000000
H      13.784640000000000     -1.328450000000000      3.465160000000000
H      14.408780000000000      0.251910000000000      2.948730000000000
H      12.841030000000000     -0.354050000000000      5.559530000000000
H      14.620609999999999     -0.075690000000000      5.423520000000000
H      13.467169999999999      1.273010000000000      5.084500000000000
H      11.870990000000001      0.452680000000000      0.390380000000000
H      12.415609999999999      2.174530000000000      0.412200000000000
H      13.599620000000000      0.852540000000000      0.743780000000000
C      12.040570000000001     -3.784890000000000      4.592460000000000
C       9.970980000000001     -4.377960000000000      3.659750000000000
O      10.970730000000000     -3.383000000000000      3.761580000000000
C      13.129140000000000     -4.468840000000000      3.773550000000000
C       8.910299999999999     -4.188820000000000      4.737700000000000
H      12.470400000000000     -2.870970000000000      5.053140000000000
H      11.713880000000000     -4.430930000000000      5.438260000000000
H       9.483110000000000     -4.266800000000000      2.667920000000000
H      10.384069999999999     -5.411460000000000      3.686280000000000
H       8.470890000000001     -3.174340000000000      4.662020000000000
H       8.103550000000000     -4.938900000000000      4.601410000000000
H       9.352340000000000     -4.315340000000000      5.746820000000000
H      13.479870000000000     -3.794300000000000      2.964700000000000
H      13.987830000000001     -4.716020000000000      4.431950000000000
H      12.743670000000000     -5.405120000000000      3.320330000000000
Mg      9.529180000000000     -4.052750000000000     13.574650000000000
C      11.658210000000000     -2.920940000000000     14.898470000000000
C      13.857239999999999     -2.337340000000000     14.376450000000000
O      12.542700000000000     -2.482340000000000     13.885320000000000
C      11.270260000000000     -1.831430000000000     15.872940000000000
C      14.842610000000001     -2.531340000000000     13.229830000000000
H      12.508490000000000     -4.874110000000000     13.520569999999999
H      11.982089999999999     -3.853680000000000     15.408310000000000
H      13.979780000000000     -1.311990000000000     14.783469999999999
H      14.113730000000000     -3.087570000000000     15.157810000000000
H      14.636150000000001     -1.804120000000000     12.415990000000001
H      15.878500000000001     -2.375790000000000     13.597870000000000
H      14.764630000000000     -3.560010000000000     12.819170000000000
H      10.915480000000001     -0.943330000000000     15.319100000000001
H      10.453609999999999     -2.214550000000000     16.519010000000002
H      12.141620000000000     -1.559540000000000     16.499870000000001
H       8.222410000000000     -5.594160000000000     15.390980000000001
C       6.649820000000000     -4.129750000000000     15.060420000000001
C       8.132460000000000     -4.502630000000000     15.224489999999999
C       6.004550000000000     -4.773090000000000     13.827570000000000
H       6.102650000000000     -4.461820000000000     15.969989999999999
H       6.558620000000000     -3.033280000000000     14.999639999999999
H       6.539130000000000     -4.443390000000000     12.914730000000000
H       6.070840000000000     -5.876240000000000     13.910950000000000
C       4.525380000000000     -4.405970000000000     13.694229999999999
H       8.525259999999999     -3.976420000000000     16.120349999999998
H       3.958460000000000     -4.754960000000000     14.583430000000000
H       4.392840000000000     -3.309730000000000     13.585490000000000
H       4.100110000000000     -4.898870000000000     12.793620000000001
C       8.882680000000001     -6.665880000000000     12.404550000000000
C       9.252580000000000     -7.782750000000000     11.700720000000000
C      10.568429999999999     -7.604770000000000     11.349940000000000
C      10.953170000000000     -6.384810000000000     11.867800000000001
N       9.905609999999999     -5.806070000000000     12.510320000000000
C      12.350160000000001     -5.845010000000000     11.731460000000000
N      13.013890000000000     -5.626890000000000     13.025000000000000
C      13.244500000000000     -6.768250000000000     13.949280000000000
H       8.626040000000000     -8.631399999999999     11.475180000000000
H       7.913730000000000     -6.488330000000000     12.828640000000000
H      11.184419999999999     -8.294820000000000     10.791779999999999
H      12.971010000000000     -6.524310000000000     11.110590000000000
H      12.323660000000000     -4.886480000000000     11.176250000000000
C      13.844780000000000     -7.981910000000000     13.212930000000000
C      14.256050000000000     -6.300930000000000     15.014170000000000
C      11.950680000000000     -7.182340000000000     14.690960000000000
H      14.784260000000000     -7.693750000000000     12.694220000000000
H      14.071090000000000     -8.799740000000000     13.930009999999999
H      13.134919999999999     -8.387540000000000     12.464200000000000
H      13.855770000000000     -5.435340000000000     15.582060000000000
H      14.468950000000000     -7.114180000000000     15.742020000000000
H      15.212730000000001     -5.993690000000000     14.540310000000000
H      11.493520000000000     -6.306350000000000     15.200250000000000
H      11.200089999999999     -7.631780000000000     14.021250000000000
H      12.171030000000000     -7.953850000000000     15.457670000000000
Mg      6.941150000000000     -2.451360000000000     11.732799999999999
H       5.041230000000000     -3.907760000000000     10.572910000000000
C       6.604410000000000     -3.950840000000000      9.081759999999999
C       5.754240000000000     -3.207430000000000     10.088250000000000
C       7.478650000000000     -4.971630000000000      9.803630000000000
H       5.946320000000000     -4.451580000000000      8.339359999999999
H       7.244400000000000     -3.222880000000000      8.545180000000000
H       8.087249999999999     -4.452770000000000     10.570340000000000
H       6.845280000000000     -5.722640000000000     10.323520000000000
C       8.406359999999999     -5.667830000000000      8.817240000000000
H       5.173450000000000     -2.401270000000000      9.592140000000001
H       7.811640000000000     -6.219680000000000      8.060380000000000
H       9.054860000000000     -4.922140000000000      8.309670000000001
H       9.055990000000000     -6.384590000000000      9.351710000000001
C       6.048540000000000      1.289780000000000     12.064380000000000
C       5.209680000000000      0.426000000000000     12.738429999999999
C       6.013790000000000     -0.481560000000000     13.390870000000000
C       7.265540000000000     -0.160520000000000     13.083250000000000
N       7.282400000000000      0.964270000000000     12.251130000000000
C       8.482900000000001     -0.953720000000000     13.474430000000000
N       8.857839999999999     -1.857020000000000     12.376070000000000
C       9.807430000000000     -1.411820000000000     11.325530000000001
H       4.125900000000000      0.420140000000000     12.717689999999999
H       5.746150000000000      2.117290000000000     11.446990000000000
H       5.681110000000000     -1.320100000000000     13.974430000000000
H       8.199199999999999     -1.611980000000000     14.318840000000000
H       9.293070000000000     -0.319430000000000     13.872500000000000
C      10.774520000000001     -0.304410000000000     11.803830000000000
C      10.664090000000000     -2.626360000000000     10.924550000000000
C       9.039640000000000     -0.931490000000000     10.093209999999999
H      11.339350000000000     -0.634990000000000     12.698880000000001
H      11.512309999999999     -0.060330000000000     11.009700000000000
H      10.227779999999999      0.628780000000000     12.048790000000000
H      10.043640000000000     -3.467600000000000     10.566870000000000
H      11.379479999999999     -2.367140000000000     10.113960000000001
H      11.243630000000000     -2.984100000000000     11.796960000000000
H       8.399950000000000     -1.744170000000000      9.709270000000000
H       8.399419999999999     -0.065680000000000     10.327190000000000
H       9.745419999999999     -0.632780000000000      9.291710000000000

-C 0
6-31g(d,p)
****
-H 0
6-31g(d,p)
****
-Mg 0
6-31g(d,p)
****
-N 0
6-31+g(d,p)
****
-Na 0
6-31g(d,p)
****
-O 0
6-31+g(d,p)
****


