%chk=lowest10_c2_a1_speciation0_speciation0_speciationDFT133_rank09_E170.69.chk
%nprocshared=20
%mem=40GB
#p opt=loose PM7/gen scf=xqc 

lowest10_c2_a1_speciation0_speciation0_speciationDFT133_rank09_E170.69 DFT input

0 1
Na      0.000060000000000      2.183700000000000     -0.001190000000000
C      -1.158180000000000     -1.042550000000000     -0.002150000000000
C       1.159130000000000     -1.042100000000000     -0.000840000000000
O       0.000390000000000     -0.240460000000000     -0.001100000000000
C      -2.374100000000000     -0.122860000000000      0.000970000000000
C       2.374970000000000     -0.122930000000000      0.000420000000000
H      -1.204300000000000     -1.672820000000000     -0.919100000000000
H      -1.203570000000000     -1.677510000000000      0.911670000000000
H       1.204800000000000     -1.672190000000000      0.915510000000000
H       1.205520000000000     -1.675090000000000     -0.916030000000000
H       2.361970000000000      0.523850000000000      0.904140000000000
H       3.310580000000000     -0.720330000000000      0.000640000000000
H       2.363120000000000      0.525770000000000     -0.901850000000000
H      -2.362160000000000      0.527270000000000     -0.900330000000000
H      -3.310160000000000     -0.719520000000000      0.000010000000000
H      -2.361190000000000      0.522720000000000      0.905550000000000
Na     -7.457640000000000    -13.989520000000001     -0.304700000000000
C      -4.867940000000000    -11.829020000000000     -1.304850000000000
C      -4.293900000000000    -12.829730000000000      0.695640000000000
O      -5.277600000000000    -12.737959999999999     -0.308780000000000
C      -5.958920000000000    -11.755470000000001     -2.363650000000000
C      -4.773240000000000    -13.816319999999999      1.750310000000000
H      -4.730710000000000    -10.808199999999999     -0.880580000000000
H      -3.931590000000000    -12.176170000000001     -1.798170000000000
H      -3.333370000000000    -13.209510000000000      0.278220000000000
H      -4.145530000000000    -11.846069999999999      1.193610000000000
H      -4.937850000000000    -14.813980000000001      1.289950000000000
H      -4.015750000000000    -13.910740000000001      2.556320000000000
H      -5.728990000000000    -13.462249999999999      2.192980000000000
H      -6.909500000000000    -11.407980000000000     -1.904900000000000
H      -5.665500000000000    -11.047169999999999     -3.166340000000000
H      -6.122110000000000    -12.759919999999999     -2.809980000000000
Mg      0.741950000000000     -8.985860000000001     -1.833500000000000
C       1.655070000000000    -11.599320000000001     -0.616300000000000
C      -0.254690000000000    -11.122890000000000      0.680680000000000
O       0.649790000000000    -10.669580000000000     -0.291340000000000
C       1.284100000000000    -12.385899999999999     -1.861290000000000
C      -1.485040000000000    -10.229010000000001      0.608700000000000
H       2.581700000000000    -11.026830000000000     -0.829660000000000
H       1.892900000000000    -12.283630000000000      0.208000000000000
H      -0.572000000000000    -12.175240000000001      0.509900000000000
H       0.194070000000000    -11.006890000000000      1.682870000000000
H      -1.987600000000000    -10.354450000000000     -0.372380000000000
H      -2.192160000000000    -10.481059999999999      1.423580000000000
H      -1.191770000000000     -9.163180000000001      0.706550000000000
H       1.123040000000000    -11.692959999999999     -2.714120000000000
H       2.112310000000000    -13.081690000000000     -2.114110000000000
H       0.360540000000000    -12.972120000000000     -1.679340000000000
H      -1.566820000000000     -9.446400000000001     -3.231350000000000
C      -1.466480000000000     -7.287100000000000     -3.647610000000000
C      -1.496080000000000     -8.472950000000001     -2.703280000000000
C      -0.316650000000000     -7.393730000000000     -4.657600000000000
H      -2.435720000000000     -7.255180000000000     -4.181270000000000
H      -1.348790000000000     -6.359300000000000     -3.047620000000000
H       0.657580000000000     -7.397810000000000     -4.136490000000000
H      -0.404350000000000     -8.336300000000000     -5.239420000000000
C      -0.335160000000000     -6.209910000000000     -5.615950000000000
H      -2.273240000000000     -8.369500000000000     -1.920910000000000
H      -1.300550000000000     -6.185650000000000     -6.163410000000000
H      -0.206400000000000     -5.259610000000000     -5.054330000000000
H       0.492290000000000     -6.305150000000000     -6.350230000000000
C       2.798390000000000     -9.057410000000001     -4.060090000000000
C       4.038200000000000     -8.547040000000001     -4.375130000000000
C       4.451380000000000     -7.804350000000000     -3.281320000000000
C       3.437200000000000     -7.885740000000000     -2.351080000000000
N       2.444370000000000     -8.633060000000000     -2.839390000000000
C       3.416610000000000     -7.265520000000000     -0.984260000000000
N       2.067510000000000     -7.290620000000000     -0.383600000000000
C       1.380040000000000     -5.981280000000000     -0.313960000000000
H       4.574250000000000     -8.700320000000000     -5.300310000000000
H       2.179790000000000     -9.691220000000000     -4.684100000000000
H       5.376810000000000     -7.256710000000000     -3.182330000000000
H       4.087030000000000     -7.858090000000000     -0.355510000000000
H       3.860140000000000     -6.256310000000000     -1.011820000000000
C       1.369790000000000     -5.286230000000000     -1.687650000000000
C      -0.088150000000000     -6.208120000000000      0.096580000000000
C       2.044030000000000     -5.090680000000000      0.754050000000000
H       0.889320000000000     -5.952080000000000     -2.425480000000000
H       0.803600000000000     -4.333790000000000     -1.641730000000000
H       2.387170000000000     -5.051330000000000     -2.052820000000000
H      -0.163470000000000     -6.670960000000000      1.089160000000000
H      -0.637440000000000     -5.242410000000000      0.148780000000000
H      -0.609470000000000     -6.868390000000000     -0.623270000000000
H       2.031930000000000     -5.598950000000000      1.741340000000000
H       3.095920000000000     -4.858980000000000      0.502850000000000
H       1.502720000000000     -4.128080000000000      0.852030000000000
Mg      2.375740000000000     -8.807720000000000      1.802730000000000
C       4.061070000000000     -7.550140000000000      4.067490000000000
C       4.999930000000000     -6.294970000000000      2.277960000000000
O       4.087770000000000     -7.298050000000000      2.676770000000000
C       3.402730000000000     -6.429220000000000      4.864610000000000
C       6.452410000000000     -6.584120000000000      2.651610000000000
H       3.465190000000000     -8.470499999999999      4.202990000000000
H       5.053340000000000     -7.812610000000000      4.477930000000000
H       4.971500000000000     -6.276690000000000      1.170870000000000
H       4.669020000000000     -5.290590000000000      2.611620000000000
H       6.740890000000000     -7.602920000000000      2.318020000000000
H       7.107820000000000     -5.841930000000000      2.153250000000000
H       6.606720000000000     -6.487790000000000      3.744100000000000
H       2.390950000000000     -6.209510000000000      4.476860000000000
H       3.313070000000000     -6.744550000000000      5.925060000000000
H       4.012970000000000     -5.507200000000000      4.817700000000000
H       0.820350000000000     -7.038880000000000      3.150450000000000
C       0.492680000000000     -8.662780000000000      4.531860000000000
C       0.666070000000000     -8.133459999999999      3.103630000000000
C      -0.506920000000000     -7.837400000000000      5.359960000000000
H       0.157660000000000     -9.718560000000000      4.509160000000000
H       1.459510000000000     -8.608380000000000      5.062270000000000
H      -0.541840000000000     -8.269780000000001      6.383240000000000
H      -0.146560000000000     -6.788300000000000      5.443180000000000
C      -1.924640000000000     -7.834360000000000      4.791130000000000
H      -0.275110000000000     -8.317440000000000      2.557950000000000
H      -1.953620000000000     -7.342760000000000      3.796830000000000
H      -2.307810000000000     -8.872520000000000      4.704960000000000
H      -2.589170000000000     -7.262230000000000      5.472840000000000
C       1.745270000000000    -14.608850000000000      2.555680000000000
C       2.555740000000000    -14.804349999999999      3.658500000000000
C       2.972950000000000    -13.555389999999999      4.079930000000000
C       2.432120000000000    -12.691739999999999      3.241370000000000
N       1.647570000000000    -13.359859999999999      2.292470000000000
C       2.621660000000000    -11.214630000000000      3.268040000000000
N       3.206960000000000    -10.718080000000000      2.020580000000000
C       4.659800000000000    -10.998130000000000      1.763670000000000
H       2.825720000000000    -15.754000000000000      4.096220000000000
H       1.252760000000000    -15.369619999999999      1.970610000000000
H       3.625920000000000    -13.317080000000001      4.906080000000000
H       3.185590000000000    -10.858050000000000      4.151430000000000
H       1.619720000000000    -10.785110000000000      3.354090000000000
C       4.819770000000000    -12.399979999999999      1.141760000000000
C       5.224200000000000    -10.001260000000000      0.739030000000000
C       5.534830000000000    -10.897030000000001      3.034440000000000
H       4.246120000000000    -12.472980000000000      0.195350000000000
H       5.884900000000000    -12.605760000000000      0.903280000000000
H       4.482380000000000    -13.200749999999999      1.819030000000000
H       5.195550000000000     -8.975970000000000      1.143460000000000
H       6.292120000000000    -10.227959999999999      0.515140000000000
H       4.669270000000000    -10.050879999999999     -0.219790000000000
H       5.476130000000000     -9.882210000000001      3.471110000000000
H       5.237110000000000    -11.641719999999999      3.798310000000000
H       6.600230000000000    -11.100490000000001      2.791210000000000

-C 0
6-31g(d,p)
****
-H 0
6-31g(d,p)
****
-Mg 0
6-31g(d,p)
****
-N 0
6-31+g(d,p)
****
-Na 0
6-31g(d,p)
****
-O 0
6-31+g(d,p)
****


