%chk=lowest10_c2_a1_speciation0_speciation0_speciationDFT66b_rank08_E163.88.chk
%nprocshared=20
%mem=40GB
#p opt=loose PM7/gen scf=xqc 

lowest10_c2_a1_speciation0_speciation0_speciationDFT66b_rank08_E163.88 DFT input

0 1
Na     -0.001070000000000      2.196520000000000      0.000610000000000
C       0.578600000000000     -1.041660000000000      1.003750000000000
C      -0.579640000000000     -1.042210000000000     -1.001840000000000
O      -0.000080000000000     -0.239190000000000      0.000570000000000
C       1.188330000000000     -0.124000000000000      2.056330000000000
C      -1.185930000000000     -0.124090000000000     -2.056470000000000
H      -0.191510000000000     -1.674170000000000      1.501020000000000
H       1.394260000000000     -1.672450000000000      0.585190000000000
H       0.189650000000000     -1.676820000000000     -1.497700000000000
H      -1.396320000000000     -1.672950000000000     -0.583040000000000
H      -0.396600000000000      0.521920000000000     -2.497730000000000
H      -1.654020000000000     -0.722370000000000     -2.865880000000000
H      -1.961210000000000      0.525070000000000     -1.595330000000000
H       0.401340000000000      0.525060000000000      2.497210000000000
H       1.655360000000000     -0.722940000000000      2.865920000000000
H       1.965200000000000      0.521860000000000      1.593270000000000
Na     -5.389950000000000    -14.115560000000000      0.053160000000000
C      -2.983390000000000    -13.283350000000000      2.495020000000000
C      -2.406460000000000    -12.283500000000000      0.493950000000000
O      -3.348070000000000    -13.104990000000001      1.145800000000000
C      -4.024520000000000    -14.172739999999999      3.160010000000000
C      -2.840450000000000    -12.118900000000000     -0.955330000000000
H      -1.995280000000000    -13.790970000000000      2.575310000000000
H      -2.968390000000000    -12.309060000000001      3.034490000000000
H      -2.370320000000000    -11.272420000000000      0.959920000000000
H      -1.396160000000000    -12.752760000000000      0.500520000000000
H      -3.846400000000000    -11.649210000000000     -0.998650000000000
H      -2.120890000000000    -11.475989999999999     -1.500680000000000
H      -2.884440000000000    -13.111300000000000     -1.452810000000000
H      -4.065570000000000    -15.157510000000000      2.646940000000000
H      -3.764430000000000    -14.332660000000001      4.227240000000000
H      -5.025800000000000    -13.694610000000001      3.100220000000000
Mg      4.743970000000000     -8.301550000000001      2.193120000000000
C       3.826970000000000     -6.148440000000000      0.765070000000000
C       1.759870000000000     -5.152280000000000      0.338540000000000
O       2.530300000000000     -5.884880000000000      1.265530000000000
C       4.745550000000000     -4.948250000000000      0.807600000000000
C       0.283250000000000     -5.452490000000000      0.567330000000000
H       2.269500000000000     -8.100350000000001      0.346300000000000
H       3.835320000000000     -6.656300000000000     -0.223170000000000
H       1.933850000000000     -4.069550000000000      0.502770000000000
H       1.987020000000000     -5.415860000000000     -0.718760000000000
H      -0.003830000000000     -5.206260000000000      1.611680000000000
H      -0.332710000000000     -4.844830000000000     -0.128490000000000
H       0.071260000000000     -6.526620000000000      0.381390000000000
H       4.736120000000000     -4.505960000000000      1.820120000000000
H       5.773250000000000     -5.286150000000000      0.561060000000000
H       4.415010000000000     -4.195430000000000      0.065970000000000
H       6.817410000000000     -9.338400000000000      0.779750000000000
C       7.947160000000000     -8.699669999999999      2.524160000000000
C       6.828990000000000     -8.488360000000000      1.489820000000000
C       7.726640000000000     -9.938580000000000      3.399950000000000
H       8.911099999999999     -8.808120000000001      1.980010000000000
H       8.024100000000001     -7.802750000000000      3.159280000000000
H       6.770590000000000     -9.837590000000001      3.951150000000000
H       7.684480000000000    -10.840439999999999      2.757220000000000
C       8.859380000000000    -10.140510000000001      4.408450000000000
H       7.052620000000000     -7.559370000000000      0.923460000000000
H       9.827769999999999    -10.275480000000000      3.881350000000000
H       8.939060000000000     -9.276520000000000      5.100010000000000
H       8.660880000000001    -11.051990000000000      5.012410000000000
C       4.501680000000000    -11.219900000000001      2.036010000000000
C       3.757280000000000    -12.345620000000000      1.795050000000000
C       2.490040000000000    -11.916560000000000      1.484260000000000
C       2.516960000000000    -10.537860000000000      1.536350000000000
N       3.759340000000000    -10.114030000000000      1.886320000000000
C       1.320700000000000     -9.686620000000000      1.211300000000000
N       1.547680000000000     -8.786090000000000      0.071650000000000
C       1.871210000000000     -9.342300000000000     -1.268490000000000
H       4.109100000000000    -13.364300000000000      1.839710000000000
H       5.540730000000000    -11.203519999999999      2.301170000000000
H       1.643650000000000    -12.538589999999999      1.231340000000000
H       0.433920000000000    -10.322480000000001      1.006000000000000
H       1.045090000000000     -9.081009999999999      2.097250000000000
C       0.916850000000000    -10.489970000000000     -1.648640000000000
C       1.691830000000000     -8.205640000000001     -2.294020000000000
C       3.341010000000000     -9.818830000000000     -1.359630000000000
H      -0.135550000000000    -10.140050000000000     -1.601680000000000
H       1.127780000000000    -10.849100000000000     -2.678440000000000
H       1.036470000000000    -11.355480000000000     -0.966090000000000
H       2.374620000000000     -7.360730000000000     -2.066430000000000
H       1.922810000000000     -8.560010000000000     -3.322390000000000
H       0.648800000000000     -7.823450000000000     -2.279740000000000
H       4.036170000000000     -9.005910000000000     -1.057000000000000
H       3.542390000000000    -10.704870000000000     -0.736780000000000
H       3.589370000000000    -10.119080000000000     -2.398750000000000
Mg      5.809470000000000     -8.443619999999999      5.591230000000000
H       6.633940000000000    -10.755800000000001      6.612850000000000
C       4.493460000000000    -10.888109999999999      6.880450000000000
C       5.792910000000000    -10.118200000000000      6.958470000000000
C       4.175100000000000    -11.212160000000001      5.424020000000000
H       4.578670000000000    -11.819060000000000      7.481160000000000
H       3.683230000000000    -10.267569999999999      7.311440000000000
H       4.144680000000000    -10.271450000000000      4.839690000000000
H       4.969930000000000    -11.856470000000000      4.990060000000000
C       2.825720000000000    -11.909720000000000      5.318040000000000
H       5.997930000000000     -9.798780000000001      8.002190000000001
H       2.850070000000000    -12.870670000000000      5.872140000000000
H       2.024980000000000    -11.260970000000000      5.733290000000000
H       2.588960000000000    -12.115819999999999      4.258500000000000
C       6.844180000000000     -5.367220000000000      7.652040000000000
C       7.890470000000000     -6.121580000000000      7.158990000000000
C       7.592530000000000     -6.398360000000000      5.843840000000000
C       6.411360000000000     -5.841710000000000      5.600570000000000
N       5.947700000000000     -5.184240000000000      6.747370000000000
C       5.629040000000000     -5.993090000000000      4.324950000000000
N       4.654180000000000     -7.085390000000000      4.469360000000000
C       3.283190000000000     -6.810620000000000      4.968110000000000
H       8.752470000000001     -6.480760000000000      7.708150000000000
H       6.754920000000000     -4.986980000000000      8.655530000000001
H       8.175660000000001     -7.006050000000000      5.176250000000000
H       6.332880000000000     -6.323120000000000      3.535620000000000
H       5.225190000000000     -5.034360000000000      3.957850000000000
C       2.814160000000000     -5.361800000000000      4.702130000000000
C       2.317140000000000     -7.749180000000000      4.222470000000000
C       3.198390000000000     -7.116630000000000      6.464590000000000
H       2.871480000000000     -5.121960000000000      3.621130000000000
H       1.758790000000000     -5.228000000000000      5.022410000000000
H       3.429080000000000     -4.630510000000000      5.264910000000000
H       2.585910000000000     -8.811800000000000      4.360650000000000
H       1.271560000000000     -7.617760000000000      4.576520000000000
H       2.344630000000000     -7.535270000000000      3.137170000000000
H       3.467660000000000     -8.171070000000000      6.646080000000000
H       3.883550000000000     -6.478390000000000      7.045790000000000
H       2.166400000000000     -6.949760000000000      6.839570000000000

-C 0
6-31g(d,p)
****
-H 0
6-31g(d,p)
****
-Mg 0
6-31g(d,p)
****
-N 0
6-31+g(d,p)
****
-Na 0
6-31g(d,p)
****
-O 0
6-31+g(d,p)
****


