%chk=lowest10_c2_a1_speciation3_speciation3_speciationDFT66b_rank03_E236.77.chk
%nprocshared=20
%mem=40GB
#p opt=loose PM7/gen scf=xqc 

lowest10_c2_a1_speciation3_speciation3_speciationDFT66b_rank03_E236.77 DFT input

0 1
Na      0.164930000000000      0.261700000000000      0.202200000000000
C      -1.469300000000000      2.029090000000000     -1.814060000000000
C      -0.428290000000000      3.447650000000000     -0.254170000000000
O      -0.854980000000000      2.134760000000000     -0.546010000000000
C      -0.445480000000000      1.729130000000000     -2.905310000000000
C      -1.527300000000000      4.208030000000000      0.476690000000000
H      -2.177960000000000      1.176540000000000     -1.768800000000000
H      -2.077700000000000      2.923080000000000     -2.069960000000000
H       0.454800000000000      3.374320000000000      0.417340000000000
H      -0.084810000000000      4.002060000000000     -1.155500000000000
H      -1.816730000000000      3.664010000000000      1.401230000000000
H      -1.161210000000000      5.218380000000000      0.752440000000000
H      -2.419530000000000      4.313750000000000     -0.173720000000000
H       0.121010000000000      0.806560000000000     -2.661960000000000
H      -0.973350000000000      1.575770000000000     -3.870050000000000
H       0.266030000000000      2.571870000000000     -3.019670000000000
C       1.651370000000000     -1.563930000000000      2.365420000000000
C       0.474720000000000      0.161410000000000      3.426950000000000
O       1.030750000000000     -0.305100000000000      2.219410000000000
C       0.648240000000000     -2.705970000000000      2.212340000000000
C      -0.303450000000000      1.440050000000000      3.130850000000000
H       2.390050000000000     -1.657710000000000      1.541330000000000
H       2.229250000000000     -1.646950000000000      3.312100000000000
H      -0.237840000000000     -0.572350000000000      3.860820000000000
H       1.279110000000000      0.399920000000000      4.155490000000000
H      -1.118570000000000      1.237450000000000      2.403020000000000
H      -0.751360000000000      1.842530000000000      4.063130000000000
H       0.373760000000000      2.206480000000000      2.697820000000000
H       0.100520000000000     -2.611120000000000      1.252000000000000
H       1.189000000000000     -3.675390000000000      2.217140000000000
H      -0.081950000000000     -2.708180000000000      3.046080000000000
C       3.136200000000000      0.088210000000000     -0.861800000000000
C       1.951790000000000     -1.549020000000000     -2.060610000000000
O       1.909590000000000     -0.595300000000000     -1.020530000000000
C       3.157840000000000      1.365790000000000     -1.693970000000000
C       2.359770000000000     -2.913950000000000     -1.518620000000000
H       3.228970000000000      0.370730000000000      0.208860000000000
H       4.015530000000000     -0.550840000000000     -1.093330000000000
H       0.928040000000000     -1.631620000000000     -2.480960000000000
H       2.606320000000000     -1.239580000000000     -2.905770000000000
H       1.665980000000000     -3.228660000000000     -0.710680000000000
H       2.319510000000000     -3.663920000000000     -2.335800000000000
H       3.391960000000000     -2.877000000000000     -1.113800000000000
H       2.308540000000000      2.023100000000000     -1.410110000000000
H       4.107450000000000      1.910970000000000     -1.509440000000000
H       3.087500000000000      1.126770000000000     -2.775050000000000
C      -1.822120000000000     -2.253190000000000     -1.058390000000000
C      -2.855500000000000     -0.721680000000000      0.393740000000000
O      -1.664400000000000     -1.089520000000000     -0.273560000000000
C      -2.244710000000000     -1.896290000000000     -2.479560000000000
C      -2.934450000000000     -1.376550000000000      1.768020000000000
H      -0.835750000000000     -2.760060000000000     -1.105930000000000
H      -2.523600000000000     -2.987910000000000     -0.604950000000000
H      -2.833600000000000      0.379630000000000      0.538970000000000
H      -3.768750000000000     -0.937140000000000     -0.203980000000000
H      -2.045510000000000     -1.104740000000000      2.370770000000000
H      -3.843730000000000     -1.021300000000000      2.296560000000000
H      -2.981450000000000     -2.480320000000000      1.673820000000000
H      -1.509040000000000     -1.202550000000000     -2.937850000000000
H      -2.293500000000000     -2.819960000000000     -3.093240000000000
H      -3.243290000000000     -1.413710000000000     -2.478980000000000
Na     11.666050000000000    -10.762700000000001      8.128959999999999
C      14.585889999999999    -11.932800000000000      8.505690000000000
C      13.276420000000000    -12.543240000000001     10.357440000000000
O      13.427090000000000    -11.660679999999999      9.266400000000001
C      14.292940000000000    -12.943569999999999      7.401470000000000
C      13.910580000000000    -11.942010000000000     11.603650000000000
H      14.900029999999999    -10.982089999999999      8.026920000000000
H      15.443210000000001    -12.261130000000000      9.133470000000001
H      12.187730000000000    -12.673249999999999     10.540770000000000
H      13.678590000000000    -13.561349999999999     10.154830000000000
H      13.458570000000000    -10.949630000000001     11.816240000000001
H      13.738460000000000    -12.611900000000000     12.471080000000001
H      15.002780000000000    -11.816979999999999     11.454340000000000
H      13.465669999999999    -12.579530000000000      6.757690000000000
H      15.199710000000000    -13.077209999999999      6.775220000000000
H      14.010380000000000    -13.925269999999999      7.833290000000000
C       8.771500000000000     -9.359940000000000      7.809940000000000
C       9.561800000000000     -9.122940000000000      9.997930000000000
O       9.679190000000000     -9.828130000000000      8.783650000000000
C       9.348039999999999     -8.180030000000000      7.030980000000000
C      10.684170000000000     -9.575659999999999     10.925090000000001
H       8.609830000000001    -10.190030000000000      7.089920000000000
H       7.772470000000000     -9.119339999999999      8.236840000000001
H       9.672570000000000     -8.027410000000000      9.847619999999999
H       8.589530000000000     -9.352440000000000     10.485189999999999
H      11.673450000000001     -9.362600000000000     10.465870000000001
H      10.617889999999999     -9.039650000000000     11.894650000000000
H      10.607519999999999    -10.668020000000000     11.111140000000001
H      10.332680000000000     -8.450600000000000      6.597460000000000
H       8.657550000000001     -7.916880000000000      6.204290000000000
H       9.471050000000000     -7.292450000000000      7.684000000000000
C       9.887190000000000    -13.002660000000001      6.740430000000000
C      11.040020000000000    -11.975849999999999      4.972510000000000
O      10.746380000000000    -11.949249999999999      6.353340000000000
C      10.693780000000000    -14.213939999999999      7.194040000000000
C      10.053950000000000    -11.104300000000000      4.205590000000000
H       9.281400000000000    -12.645479999999999      7.600390000000000
H       9.160489999999999    -13.283420000000000      5.944850000000000
H      12.059200000000001    -11.557880000000001      4.836470000000000
H      11.072740000000000    -13.007260000000000      4.554010000000000
H      10.070520000000000    -10.068580000000001      4.605510000000000
H      10.335990000000001    -11.079829999999999      3.132590000000000
H       9.026090000000000    -11.511030000000000      4.299810000000000
H      11.369529999999999    -13.930510000000000      8.028779999999999
H      10.003190000000000    -15.008530000000000      7.546550000000000
H      11.300070000000000    -14.612629999999999      6.354610000000000
C      13.259290000000000     -8.734640000000001      5.781580000000000
C      13.660159999999999     -8.241740000000000      8.040469999999999
O      13.004330000000000     -9.095499999999999      7.123590000000000
C      14.479179999999999     -9.476590000000000      5.247830000000000
C      12.765269999999999     -7.067750000000000      8.419620000000000
H      12.376080000000000     -9.033890000000000      5.179430000000000
H      13.368869999999999     -7.635720000000000      5.641420000000000
H      13.870050000000001     -8.829920000000000      8.959239999999999
H      14.647550000000001     -7.885170000000000      7.670030000000000
H      11.809060000000001     -7.440540000000000      8.837450000000000
H      13.272320000000001     -6.446290000000000      9.186890000000000
H      12.549429999999999     -6.438660000000000      7.532310000000000
H      14.334870000000000    -10.572590000000000      5.348910000000000
H      14.621580000000000     -9.231220000000000      4.174770000000000
H      15.389870000000000     -9.179800000000000      5.807420000000000
Mg      8.969020000000000     -0.777520000000000      3.462960000000000
C       7.960720000000000     -1.271540000000000      0.965880000000000
C       8.227639999999999     -2.905390000000000     -0.680450000000000
O       8.239870000000000     -2.633480000000000      0.703750000000000
C       6.499710000000000     -0.915770000000000      0.812150000000000
C       9.137960000000000     -4.094790000000000     -0.964050000000000
H      10.455249999999999     -1.699410000000000      0.907160000000000
H       8.628959999999999     -0.562610000000000      0.431360000000000
H       7.193310000000000     -3.165570000000000     -0.987830000000000
H       8.601789999999999     -2.054540000000000     -1.292970000000000
H       8.811159999999999     -4.979940000000000     -0.377950000000000
H       9.099349999999999     -4.344300000000000     -2.045230000000000
H      10.188179999999999     -3.855110000000000     -0.694730000000000
H       5.878060000000000     -1.620960000000000      1.392960000000000
H       6.347050000000000      0.114370000000000      1.195000000000000
H       6.219180000000000     -0.959470000000000     -0.256970000000000
H       9.191580000000000      1.918350000000000      3.686400000000000
C       7.676810000000000      1.625570000000000      5.218520000000000
C       8.295280000000000      1.288860000000000      3.851440000000000
C       8.606000000000000      1.298820000000000      6.393510000000000
H       7.438850000000000      2.711870000000000      5.236650000000000
H       6.728180000000000      1.076500000000000      5.329150000000000
H       8.844939999999999      0.216670000000000      6.387600000000000
H       9.543699999999999      1.881010000000000      6.293560000000000
C       7.978780000000000      1.658710000000000      7.741840000000000
H       7.547670000000000      1.527100000000000      3.065230000000000
H       7.756150000000000      2.745980000000000      7.787590000000000
H       7.042760000000000      1.088230000000000      7.913470000000000
H       8.690149999999999      1.413540000000000      8.559670000000001
C      11.575130000000000     -0.067730000000000      4.603900000000000
C      12.939600000000000     -0.195370000000000      4.636740000000000
C      13.268300000000000     -1.118680000000000      3.674690000000000
C      12.084809999999999     -1.509310000000000      3.082210000000000
N      11.042160000000001     -0.863630000000000      3.666450000000000
C      12.028670000000000     -2.486640000000000      1.940680000000000
N      11.447990000000001     -1.912430000000000      0.718320000000000
C      12.092760000000000     -0.746010000000000      0.059730000000000
H      13.614140000000001      0.333740000000000      5.291320000000000
H      10.993969999999999      0.581580000000000      5.228790000000000
H      14.262190000000000     -1.457760000000000      3.421220000000000
H      13.041689999999999     -2.880600000000000      1.715140000000000
H      11.432750000000000     -3.371740000000000      2.239170000000000
C      13.612660000000000     -0.950490000000000     -0.091160000000000
C      11.479960000000000     -0.616080000000000     -1.348570000000000
C      11.805470000000000      0.576150000000000      0.811780000000000
H      13.822970000000000     -1.890250000000000     -0.645500000000000
H      14.067159999999999     -0.101300000000000     -0.644680000000000
H      14.109520000000000     -1.002550000000000      0.898530000000000
H      10.384180000000001     -0.450660000000000     -1.285500000000000
H      11.921390000000001      0.246200000000000     -1.894510000000000
H      11.659010000000000     -1.537620000000000     -1.942510000000000
H      10.711990000000000      0.717230000000000      0.953470000000000
H      12.297160000000000      0.623120000000000      1.796480000000000
H      12.196070000000001      1.442870000000000      0.239250000000000
Mg      7.730110000000000     -1.848280000000000      6.629890000000000
H       9.022230000000000     -1.151280000000000      8.846010000000000
C      10.099280000000000     -2.925980000000000      8.243580000000000
C       8.806440000000000     -2.176020000000000      8.476129999999999
C      10.887390000000000     -2.254580000000000      7.123110000000000
H      10.690659999999999     -2.943700000000000      9.184180000000000
H       9.862209999999999     -3.970710000000000      7.960860000000000
H      10.257339999999999     -2.205240000000000      6.213270000000000
H      11.153060000000000     -1.213870000000000      7.408960000000000
C      12.150350000000000     -3.046970000000000      6.813960000000000
H       8.179600000000001     -2.698350000000000      9.229500000000000
H      12.807539999999999     -3.078770000000000      7.707370000000000
H      11.887940000000000     -4.082210000000000      6.507930000000000
H      12.701440000000000     -2.569790000000000      5.983330000000000
C       4.136070000000000     -3.067030000000000      7.229650000000000
C       4.388440000000000     -1.768060000000000      7.623280000000000
C       5.091210000000000     -1.173820000000000      6.599630000000000
C       5.252710000000000     -2.104070000000000      5.665350000000000
N       4.639100000000000     -3.297090000000000      6.066960000000000
C       6.075280000000000     -1.942430000000000      4.416360000000000
N       7.427450000000000     -2.477060000000000      4.642090000000000
C       7.734420000000000     -3.898650000000000      4.344830000000000
H       4.139250000000000     -1.313840000000000      8.574960000000001
H       3.611050000000000     -3.812340000000000      7.802160000000000
H       5.487230000000000     -0.174980000000000      6.599330000000000
H       6.208670000000000     -0.857010000000000      4.239420000000000
H       5.556370000000000     -2.311870000000000      3.515600000000000
C       6.810350000000000     -4.512020000000000      3.268070000000000
C       9.174560000000000     -3.964660000000000      3.804230000000000
C       7.659760000000000     -4.729940000000000      5.626220000000000
H       6.850220000000000     -3.919430000000000      2.331890000000000
H       7.127970000000000     -5.548720000000000      3.025590000000000
H       5.759500000000000     -4.558120000000000      3.619010000000000
H       9.903190000000000     -3.540770000000000      4.518210000000000
H       9.480510000000001     -5.012790000000000      3.594560000000000
H       9.251920000000000     -3.386610000000000      2.863950000000000
H       8.372700000000000     -4.336690000000000      6.370750000000000
H       6.649290000000000     -4.705940000000000      6.065200000000000
H       7.921090000000000     -5.786950000000000      5.415910000000000

-C 0
6-31g(d,p)
****
-H 0
6-31g(d,p)
****
-Mg 0
6-31g(d,p)
****
-N 0
6-31+g(d,p)
****
-Na 0
6-31g(d,p)
****
-O 0
6-31+g(d,p)
****


