%chk=lowest10_c2_a1_speciation0_speciation0_speciationDFT11_rank06_E130.03.chk
%nprocshared=20
%mem=40GB
#p opt=loose PM7/gen scf=xqc 

lowest10_c2_a1_speciation0_speciation0_speciationDFT11_rank06_E130.03 DFT input

0 1
Na     -0.124240000000000      1.985090000000000      0.917120000000000
C      -0.227140000000000     -1.430520000000000      0.517600000000000
C       0.353480000000000     -0.427040000000000     -1.487280000000000
O       0.020480000000000     -0.206880000000000     -0.135830000000000
C      -0.581480000000000     -1.133740000000000      1.969390000000000
C       0.606140000000000      0.925220000000000     -2.143080000000000
H      -1.090400000000000     -1.959490000000000      0.054940000000000
H       0.679950000000000     -2.076600000000000      0.509330000000000
H       1.284920000000000     -1.031330000000000     -1.573530000000000
H      -0.485220000000000     -0.921090000000000     -2.028420000000000
H       1.439850000000000      1.448330000000000     -1.627060000000000
H       0.873530000000000      0.791410000000000     -3.212150000000000
H      -0.306200000000000      1.556320000000000     -2.077250000000000
H      -1.486910000000000     -0.490990000000000      2.015660000000000
H      -0.782580000000000     -2.078010000000000      2.517510000000000
H       0.259070000000000     -0.601600000000000      2.464820000000000
Na      7.815910000000000    -16.491859999999999      0.091520000000000
C       4.636510000000000    -15.322200000000000     -0.908290000000000
C       5.214880000000000    -14.325270000000000      1.092220000000000
O       5.627850000000000    -15.224090000000000      0.088660000000000
C       5.117310000000000    -16.303310000000000     -1.967830000000000
C       6.308430000000000    -14.246390000000000      2.147520000000000
H       3.683270000000000    -15.712880000000000     -0.484540000000000
H       4.470200000000000    -14.337310000000000     -1.401180000000000
H       5.065360000000000    -13.303770000000000      0.673830000000000
H       4.286280000000000    -14.686050000000000      1.588950000000000
H       7.254930000000000    -13.890040000000001      1.687420000000000
H       6.010770000000000    -13.542510000000000      2.952650000000000
H       6.479890000000000    -15.250690000000001      2.591000000000000
H       5.290950000000000    -17.300770000000000     -1.509940000000000
H       4.356480000000000    -16.401840000000000     -2.770060000000000
H       6.068730000000000    -15.942690000000001     -2.414470000000000
Mg     -2.316450000000000     -8.862940000000000     -0.862350000000000
H      -3.036200000000000    -11.405430000000001      0.215620000000000
C      -4.834040000000000    -10.631000000000000     -0.720440000000000
C      -3.540970000000000    -10.426450000000001      0.055620000000000
C      -4.646060000000000    -11.407999999999999     -2.032580000000000
H      -5.535960000000000    -11.204780000000000     -0.080830000000000
H      -5.261390000000000     -9.631240000000000     -0.919140000000000
H      -3.913550000000000    -10.903250000000000     -2.697950000000000
H      -4.276570000000000    -12.430630000000001     -1.805130000000000
C      -5.982080000000000    -11.540800000000001     -2.763730000000000
H      -3.766350000000000     -9.996210000000000      1.050330000000000
H      -6.732490000000000    -12.037400000000000     -2.111780000000000
H      -6.365790000000000    -10.541660000000000     -3.046350000000000
H      -5.859920000000000    -12.143190000000001     -3.687980000000000
C      -0.186300000000000    -13.474119999999999     -4.159820000000000
C      -1.452980000000000    -13.351660000000001     -3.633210000000000
C      -1.329820000000000    -13.349190000000000     -2.256250000000000
C      -0.032740000000000    -13.450120000000000     -1.958940000000000
N       0.756990000000000    -13.538060000000000     -3.119360000000000
C       0.523880000000000    -13.481570000000000     -0.569810000000000
N       0.171820000000000    -12.246589999999999      0.137490000000000
C       0.326060000000000    -12.214540000000000      1.612500000000000
H      -2.370970000000000    -13.271739999999999     -4.201860000000000
H       0.060150000000000    -13.507460000000000     -5.210750000000000
H      -2.132430000000000    -13.274340000000000     -1.538510000000000
H       0.104320000000000    -14.374490000000000     -0.071020000000000
H       1.629090000000000    -13.574240000000000     -0.623460000000000
C       1.803690000000000    -12.442010000000000      1.979300000000000
C      -0.100030000000000    -10.828609999999999      2.114390000000000
C      -0.556720000000000    -13.269720000000000      2.323190000000000
H       2.442240000000000    -11.689270000000000      1.468510000000000
H       1.959410000000000    -12.354590000000000      3.075840000000000
H       2.134860000000000    -13.454129999999999      1.669060000000000
H      -1.169740000000000    -10.642840000000000      1.878910000000000
H       0.025850000000000    -10.750990000000000      3.217630000000000
H       0.514660000000000    -10.040200000000000      1.635370000000000
H      -1.631420000000000    -13.112860000000000      2.090530000000000
H      -0.280060000000000    -14.306920000000000      2.049960000000000
H      -0.427500000000000    -13.196780000000000      3.426500000000000
Mg     -1.056650000000000    -10.899400000000000     -0.904180000000000
H      -0.346450000000000     -8.361470000000001     -2.000540000000000
C       0.250170000000000     -9.833940000000000     -3.478650000000000
C       0.061190000000000     -9.396640000000000     -2.033450000000000
C      -1.014520000000000     -9.678390000000000     -4.337160000000000
H       1.048180000000000     -9.208520000000000     -3.929130000000000
H       0.582310000000000    -10.888040000000000     -3.463720000000000
H      -1.866050000000000    -10.247540000000001     -3.906950000000000
H      -1.293200000000000     -8.604340000000001     -4.390340000000000
C      -0.749630000000000    -10.168130000000000     -5.760880000000000
H       1.038480000000000     -9.391570000000000     -1.513640000000000
H       0.105200000000000     -9.616110000000001     -6.207320000000000
H      -0.508760000000000    -11.248550000000000     -5.756300000000000
H      -1.645310000000000    -10.011740000000000     -6.397510000000000
C      -5.855740000000000     -7.832320000000000     -2.958700000000000
C      -4.642390000000000     -7.986710000000000     -3.591720000000000
C      -3.686030000000000     -7.366090000000000     -2.809680000000000
C      -4.295690000000000     -6.867050000000000     -1.732650000000000
N      -5.678820000000000     -7.120990000000000     -1.759160000000000
C      -3.609100000000000     -6.115930000000000     -0.634800000000000
N      -2.593840000000000     -6.965840000000000     -0.005470000000000
C      -1.577050000000000     -6.319350000000000      0.860360000000000
H      -4.477860000000000     -8.502070000000000     -4.529620000000000
H      -6.805370000000000     -8.204409999999999     -3.313880000000000
H      -2.629860000000000     -7.294820000000000     -3.020060000000000
H      -3.164560000000000     -5.211010000000000     -1.088200000000000
H      -4.360980000000000     -5.816310000000000      0.124970000000000
C      -2.274370000000000     -5.635030000000000      2.050380000000000
C      -0.637070000000000     -7.406410000000000      1.397820000000000
C      -0.718030000000000     -5.284090000000000      0.093750000000000
H      -2.893620000000000     -6.374530000000000      2.602740000000000
H      -1.529330000000000     -5.201660000000000      2.751560000000000
H      -2.933190000000000     -4.811430000000000      1.704580000000000
H      -0.104720000000000     -7.906690000000000      0.560920000000000
H       0.128140000000000     -6.968010000000000      2.076940000000000
H      -1.211990000000000     -8.167650000000000      1.962820000000000
H      -0.185800000000000     -5.759040000000000     -0.757480000000000
H      -1.319610000000000     -4.437830000000000     -0.290260000000000
H       0.043020000000000     -4.838660000000000      0.773320000000000

-C 0
6-31g(d,p)
****
-H 0
6-31g(d,p)
****
-Mg 0
6-31g(d,p)
****
-N 0
6-31+g(d,p)
****
-Na 0
6-31g(d,p)
****
-O 0
6-31+g(d,p)
****


