%chk=lowest10_c2_a1_speciation3_speciation3_speciationDFT66b_rank06_E237.29.chk
%nprocshared=20
%mem=40GB
#p opt=loose PM7/gen scf=xqc 

lowest10_c2_a1_speciation3_speciation3_speciationDFT66b_rank06_E237.29 DFT input

0 1
Na     -0.370700000000000     -0.049050000000000      0.033210000000000
C      -0.274010000000000      1.429680000000000     -2.733740000000000
C      -2.511640000000000      0.884250000000000     -2.259490000000000
O      -1.153980000000000      0.623940000000000     -1.976830000000000
C       0.031860000000000      2.743060000000000     -2.019230000000000
C      -3.003470000000000     -0.034490000000000     -3.370410000000000
H       0.678380000000000      0.870460000000000     -2.840120000000000
H      -0.642460000000000      1.611390000000000     -3.766250000000000
H      -3.095970000000000      0.666770000000000     -1.338930000000000
H      -2.706530000000000      1.952160000000000     -2.503050000000000
H      -2.848600000000000     -1.096500000000000     -3.082880000000000
H      -4.085510000000000      0.137810000000000     -3.544640000000000
H      -2.450800000000000      0.168840000000000     -4.310340000000000
H       0.445580000000000      2.546960000000000     -1.008460000000000
H       0.784430000000000      3.311640000000000     -2.605100000000000
H      -0.883820000000000      3.360890000000000     -1.922540000000000
C      -0.424710000000000     -1.736900000000000      2.746340000000000
C      -1.809890000000000     -2.734470000000000      1.141870000000000
O      -1.130700000000000     -1.565020000000000      1.536780000000000
C       0.965230000000000     -2.324170000000000      2.508030000000000
C      -2.404890000000000     -2.495330000000000     -0.242500000000000
H      -0.287540000000000     -0.726720000000000      3.186980000000000
H      -0.998390000000000     -2.327320000000000      3.493980000000000
H      -1.120880000000000     -3.602730000000000      1.066250000000000
H      -2.639300000000000     -2.956480000000000      1.847230000000000
H      -1.600660000000000     -2.268760000000000     -0.975280000000000
H      -2.955290000000000     -3.395940000000000     -0.585510000000000
H      -3.107030000000000     -1.635300000000000     -0.211870000000000
H       1.523510000000000     -1.705990000000000      1.775160000000000
H       1.529840000000000     -2.336180000000000      3.463830000000000
H       0.897380000000000     -3.363070000000000      2.128120000000000
C      -0.957580000000000      2.114460000000000      2.261780000000000
C       1.358680000000000      2.230040000000000      1.878590000000000
O       0.154320000000000      1.549370000000000      1.596840000000000
C      -1.637340000000000      3.163980000000000      1.388380000000000
C       2.065980000000000      1.595340000000000      3.070580000000000
H      -1.687150000000000      1.297800000000000      2.449910000000000
H      -0.695970000000000      2.533410000000000      3.258940000000000
H       2.015450000000000      2.130460000000000      0.989520000000000
H       1.212930000000000      3.322630000000000      2.031420000000000
H       2.247420000000000      0.516550000000000      2.879630000000000
H       3.042140000000000      2.097780000000000      3.233590000000000
H       1.449140000000000      1.700620000000000      3.986400000000000
H      -1.951220000000000      2.714550000000000      0.422150000000000
H      -2.538140000000000      3.551420000000000      1.909460000000000
H      -0.948280000000000      4.010290000000000      1.189330000000000
C       3.001860000000000     -0.447860000000000     -0.544600000000000
C       1.547670000000000     -1.770160000000000     -1.833150000000000
O       1.658610000000000     -0.769680000000000     -0.840120000000000
C       3.494100000000000      0.689630000000000     -1.432850000000000
C       1.512790000000000     -3.158470000000000     -1.204940000000000
H       3.038960000000000     -0.105980000000000      0.510810000000000
H       3.680440000000000     -1.327250000000000     -0.606400000000000
H       0.586060000000000     -1.610400000000000     -2.366490000000000
H       2.345250000000000     -1.701640000000000     -2.605720000000000
H       0.676910000000000     -3.227530000000000     -0.481100000000000
H       1.359820000000000     -3.920720000000000     -1.997340000000000
H       2.464160000000000     -3.373390000000000     -0.677610000000000
H       2.836780000000000      1.577290000000000     -1.323020000000000
H       4.523390000000000      0.973200000000000     -1.134370000000000
H       3.503870000000000      0.376640000000000     -2.496710000000000
Na     12.190519999999999     -9.341500000000000      8.053599999999999
C      15.110360000000000    -10.511600000000000      8.430320000000000
C      13.800890000000001    -11.122040000000000     10.282080000000001
O      13.951560000000001    -10.239480000000000      9.191030000000000
C      14.817410000000001    -11.522370000000000      7.326100000000000
C      14.435040000000001    -10.520810000000001     11.528290000000000
H      15.424510000000000     -9.560890000000001      7.951560000000000
H      15.967680000000000    -10.839930000000001      9.058100000000000
H      12.712199999999999    -11.252050000000001     10.465400000000001
H      14.203060000000001    -12.140150000000000     10.079470000000001
H      13.983029999999999     -9.528430000000000     11.740880000000001
H      14.262930000000001    -11.190700000000000     12.395709999999999
H      15.527250000000000    -10.395780000000000     11.378980000000000
H      13.990140000000000    -11.158320000000000      6.682330000000000
H      15.724180000000000    -11.656010000000000      6.699850000000000
H      14.534840000000001    -12.504070000000000      7.757920000000000
C       9.295959999999999     -7.938730000000000      7.734570000000000
C      10.086270000000001     -7.701730000000000      9.922560000000001
O      10.203650000000000     -8.406929999999999      8.708280000000000
C       9.872500000000000     -6.758820000000000      6.955610000000000
C      11.208629999999999     -8.154450000000001     10.849720000000000
H       9.134290000000000     -8.768829999999999      7.014560000000000
H       8.296930000000000     -7.698130000000000      8.161470000000000
H      10.197039999999999     -6.606200000000000      9.772259999999999
H       9.113989999999999     -7.931240000000000     10.409820000000000
H      12.197920000000000     -7.941390000000000     10.390510000000001
H      11.142350000000000     -7.618440000000000     11.819279999999999
H      11.131990000000000     -9.246820000000000     11.035769999999999
H      10.857139999999999     -7.029400000000000      6.522090000000000
H       9.182020000000000     -6.495680000000000      6.128920000000000
H       9.995520000000001     -5.871250000000000      7.608630000000000
C      10.411659999999999    -11.581460000000000      6.665060000000000
C      11.564489999999999    -10.554650000000001      4.897140000000000
O      11.270849999999999    -10.528050000000000      6.277970000000000
C      11.218249999999999    -12.792740000000000      7.118670000000000
C      10.578410000000000     -9.683100000000000      4.130220000000000
H       9.805859999999999    -11.224270000000001      7.525020000000000
H       9.684960000000000    -11.862220000000001      5.869480000000000
H      12.583670000000000    -10.136680000000000      4.761100000000000
H      11.597200000000001    -11.586060000000000      4.478640000000000
H      10.594989999999999     -8.647380000000000      4.530140000000000
H      10.860460000000000     -9.658630000000000      3.057220000000000
H       9.550549999999999    -10.089829999999999      4.224440000000000
H      11.894000000000000    -12.509300000000000      7.953410000000000
H      10.527659999999999    -13.587330000000000      7.471180000000000
H      11.824540000000001    -13.191430000000000      6.279240000000000
C      13.783759999999999     -7.313440000000000      5.706220000000000
C      14.184630000000000     -6.820530000000000      7.965100000000000
O      13.528800000000000     -7.674290000000000      7.048220000000000
C      15.003650000000000     -8.055389999999999      5.172460000000000
C      13.289740000000000     -5.646550000000000      8.344250000000001
H      12.900550000000001     -7.612680000000000      5.104060000000000
H      13.893340000000000     -6.214510000000000      5.566050000000000
H      14.394520000000000     -7.408720000000000      8.883870000000000
H      15.172020000000000     -6.463970000000000      7.594660000000000
H      12.333530000000000     -6.019340000000000      8.762079999999999
H      13.796790000000000     -5.025090000000000      9.111520000000001
H      13.073900000000000     -5.017460000000000      7.456940000000000
H      14.859330000000000     -9.151389999999999      5.273540000000000
H      15.146050000000001     -7.810020000000000      4.099400000000000
H      15.914330000000000     -7.758600000000000      5.732050000000000
Mg      9.493510000000001      0.643690000000000      3.387610000000000
C       8.485400000000000      0.149190000000000      0.890490000000000
C       8.752319999999999     -1.484430000000000     -0.755840000000000
O       8.764720000000001     -1.212660000000000      0.628360000000000
C       7.024280000000000      0.504590000000000      0.737040000000000
C       9.662580000000000     -2.673790000000000     -1.039520000000000
H      10.979799999999999     -0.278200000000000      0.831810000000000
H       9.153470000000000      0.858290000000000      0.355960000000000
H       7.717960000000000     -1.744570000000000     -1.063120000000000
H       9.126429999999999     -0.633540000000000     -1.368330000000000
H       9.335739999999999     -3.558900000000000     -0.453390000000000
H       9.623889999999999     -2.923230000000000     -2.120690000000000
H      10.712780000000000     -2.434070000000000     -0.770190000000000
H       6.403030000000000     -0.200660000000000      1.318130000000000
H       6.872020000000000      1.534690000000000      1.120190000000000
H       6.742720000000000      0.460620000000000     -0.331970000000000
H       9.716070000000000      3.339560000000000      3.611090000000000
C       8.201260000000000      3.046770000000000      5.143180000000000
C       8.819760000000000      2.710060000000000      3.776120000000000
C       9.130450000000000      2.720030000000000      6.318170000000000
H       7.963310000000000      4.133070000000000      5.161310000000000
H       7.252610000000000      2.497720000000000      5.253800000000000
H       9.369400000000001      1.637880000000000      6.312250000000000
H      10.068149999999999      3.302220000000000      6.218210000000000
C       8.503240000000000      3.079910000000000      7.666490000000000
H       8.072160000000000      2.948310000000000      2.989910000000000
H       8.280609999999999      4.167190000000000      7.712230000000000
H       7.567220000000000      2.509430000000000      7.838120000000000
H       9.214620000000000      2.834740000000000      8.484320000000000
C      12.099620000000000      1.353470000000000      4.528540000000000
C      13.464079999999999      1.225830000000000      4.561380000000000
C      13.792790000000000      0.302520000000000      3.599330000000000
C      12.609299999999999     -0.088110000000000      3.006850000000000
N      11.566649999999999      0.557570000000000      3.591090000000000
C      12.553179999999999     -1.065450000000000      1.865320000000000
N      11.972519999999999     -0.491250000000000      0.642950000000000
C      12.617270000000000      0.675180000000000     -0.015630000000000
H      14.138620000000000      1.754940000000000      5.215970000000000
H      11.518450000000000      2.002780000000000      5.153430000000000
H      14.786670000000001     -0.036550000000000      3.345870000000000
H      13.566190000000001     -1.459410000000000      1.639790000000000
H      11.957250000000000     -1.950540000000000      2.163810000000000
C      14.137160000000000      0.470720000000000     -0.166520000000000
C      12.004470000000000      0.805110000000000     -1.423930000000000
C      12.329969999999999      1.997340000000000      0.736420000000000
H      14.347460000000000     -0.469050000000000     -0.720870000000000
H      14.591659999999999      1.319900000000000     -0.720050000000000
H      14.634020000000000      0.418650000000000      0.823170000000000
H      10.908690000000000      0.970530000000000     -1.360860000000000
H      12.445880000000001      1.667390000000000     -1.969880000000000
H      12.183510000000000     -0.116430000000000     -2.017870000000000
H      11.236490000000000      2.138420000000000      0.878110000000000
H      12.821660000000000      2.044320000000000      1.721120000000000
H      12.720570000000000      2.864070000000000      0.163890000000000
Mg      8.254700000000000     -0.427100000000000      6.554630000000000
H       9.546730000000000      0.269920000000000      8.770680000000000
C      10.623780000000000     -1.504790000000000      8.168229999999999
C       9.330940000000000     -0.754830000000000      8.400820000000000
C      11.411870000000000     -0.833380000000000      7.047760000000000
H      11.215159999999999     -1.522510000000000      9.108820000000000
H      10.386690000000000     -2.549510000000000      7.885510000000000
H      10.781810000000000     -0.784040000000000      6.137910000000000
H      11.677540000000000      0.207330000000000      7.333600000000000
C      12.674830000000000     -1.625770000000000      6.738600000000000
H       8.704090000000001     -1.277160000000000      9.154180000000000
H      13.332010000000000     -1.657570000000000      7.632000000000000
H      12.412409999999999     -2.661010000000000      6.432560000000000
H      13.225910000000001     -1.148590000000000      5.907960000000000
C       4.660650000000000     -1.645880000000000      7.154410000000000
C       4.912940000000000     -0.346870000000000      7.548030000000000
C       5.615770000000000      0.247390000000000      6.524420000000000
C       5.777460000000000     -0.682900000000000      5.590220000000000
N       5.163860000000000     -1.875960000000000      5.991810000000000
C       6.600050000000000     -0.521200000000000      4.341230000000000
N       7.952160000000000     -1.055900000000000      4.566860000000000
C       8.258990000000001     -2.477510000000000      4.269520000000000
H       4.663610000000000      0.107380000000000      8.499660000000000
H       4.135550000000000     -2.391180000000000      7.726860000000000
H       6.011670000000000      1.246280000000000      6.524060000000000
H       6.733410000000000      0.564230000000000      4.164290000000000
H       6.081260000000000     -0.890670000000000      3.440480000000000
C       7.334860000000000     -3.090850000000000      3.192740000000000
C       9.699100000000000     -2.543540000000000      3.728890000000000
C       8.184290000000001     -3.308810000000000      5.550880000000000
H       7.374720000000000     -2.498270000000000      2.256550000000000
H       7.652450000000000     -4.127550000000000      2.950240000000000
H       6.284010000000000     -3.136980000000000      3.543680000000000
H      10.427740000000000     -2.119650000000000      4.442860000000000
H      10.005010000000000     -3.591660000000000      3.519180000000000
H       9.776430000000000     -1.965460000000000      2.788630000000000
H       8.897209999999999     -2.915570000000000      6.295420000000000
H       7.173820000000000     -3.284800000000000      5.989850000000000
H       8.445589999999999     -4.365810000000000      5.340550000000000

-C 0
6-31g(d,p)
****
-H 0
6-31g(d,p)
****
-Mg 0
6-31g(d,p)
****
-N 0
6-31+g(d,p)
****
-Na 0
6-31g(d,p)
****
-O 0
6-31+g(d,p)
****


