%chk=lowest10_c2_a1_speciation0_speciation3_speciationDFT66b_rank04_E200.67.chk
%nprocshared=20
%mem=40GB
#p opt=loose PM7/gen scf=xqc 

lowest10_c2_a1_speciation0_speciation3_speciationDFT66b_rank04_E200.67 DFT input

0 1
Na     -0.114020000000000     -0.107100000000000     -0.356700000000000
C      -0.005960000000000     -2.882470000000000      1.111430000000000
C      -0.833110000000000     -3.221090000000000     -1.063180000000000
O      -0.594750000000000     -2.291690000000000     -0.028850000000000
C       1.517150000000000     -2.870970000000000      1.019190000000000
C      -2.234150000000000     -3.803520000000000     -0.933380000000000
H      -0.298340000000000     -2.270010000000000      1.989360000000000
H      -0.388160000000000     -3.907450000000000      1.307720000000000
H      -0.768210000000000     -2.674480000000000     -2.029200000000000
H      -0.064290000000000     -4.024050000000000     -1.110670000000000
H      -2.988650000000000     -2.988300000000000     -0.939970000000000
H      -2.434520000000000     -4.482770000000000     -1.786540000000000
H      -2.326750000000000     -4.374370000000000      0.013300000000000
H       1.888020000000000     -1.835330000000000      0.872060000000000
H       1.943990000000000     -3.268620000000000      1.963860000000000
H       1.864900000000000     -3.503830000000000      0.177690000000000
C      -0.414110000000000      2.749260000000000     -1.759880000000000
C      -2.318970000000000      1.445020000000000     -2.156950000000000
O      -0.965340000000000      1.450440000000000     -1.766530000000000
C      -0.678860000000000      3.465840000000000     -0.437110000000000
C      -2.860040000000000      0.029610000000000     -1.979870000000000
H       0.685870000000000      2.634220000000000     -1.861180000000000
H      -0.745080000000000      3.356840000000000     -2.630490000000000
H      -2.931280000000000      2.120840000000000     -1.522360000000000
H      -2.413300000000000      1.725970000000000     -3.227890000000000
H      -2.779940000000000     -0.284870000000000     -0.916950000000000
H      -3.926140000000000     -0.015610000000000     -2.284920000000000
H      -2.277490000000000     -0.681490000000000     -2.603220000000000
H      -0.321240000000000      2.848870000000000      0.412820000000000
H      -0.134410000000000      4.433210000000000     -0.426140000000000
H      -1.760020000000000      3.671000000000000     -0.305920000000000
C       2.578280000000000      0.228920000000000     -1.979060000000000
C       3.091600000000000      0.885920000000000      0.218210000000000
O       2.078890000000000      0.493630000000000     -0.683670000000000
C       2.939270000000000     -1.245100000000000     -2.130920000000000
C       3.235080000000000      2.403220000000000      0.233890000000000
H       1.770150000000000      0.462680000000000     -2.704870000000000
H       3.438260000000000      0.880790000000000     -2.250900000000000
H       2.784590000000000      0.553820000000000      1.231700000000000
H       4.067580000000000      0.391190000000000      0.015670000000000
H       2.263440000000000      2.877940000000000      0.486390000000000
H       3.985040000000000      2.696770000000000      0.997530000000000
H       3.568570000000000      2.770250000000000     -0.758260000000000
H       2.053220000000000     -1.880950000000000     -1.919450000000000
H       3.275350000000000     -1.437960000000000     -3.171510000000000
H       3.758240000000000     -1.518920000000000     -1.434480000000000
C       0.133150000000000      1.119280000000000      2.852310000000000
C      -1.933360000000000      0.184250000000000      2.238100000000000
O      -0.608810000000000      0.475020000000000      1.837710000000000
C       0.857670000000000      0.100100000000000      3.725240000000000
C      -2.871620000000000      1.335300000000000      1.893780000000000
H       0.895010000000000      1.755800000000000      2.355820000000000
H      -0.486290000000000      1.806630000000000      3.469840000000000
H      -2.266990000000000     -0.711790000000000      1.672170000000000
H      -2.009210000000000     -0.083720000000000      3.315200000000000
H      -2.826970000000000      1.550940000000000      0.808030000000000
H      -3.913260000000000      1.056530000000000      2.157630000000000
H      -2.591350000000000      2.250160000000000      2.454040000000000
H       1.510950000000000     -0.546080000000000      3.102170000000000
H       1.487420000000000      0.632050000000000      4.468610000000000
H       0.128640000000000     -0.538100000000000      4.264920000000000
Na     11.854050000000001    -17.546070000000000      0.148690000000000
C       8.679040000000001    -16.379510000000000     -0.849150000000000
C       9.257260000000000    -15.379690000000000      1.151640000000000
O       9.667650000000000    -16.282319999999999      0.150050000000000
C       9.162089999999999    -17.360420000000001     -1.908270000000000
C      10.352990000000000    -15.306990000000001      2.205200000000000
H       7.725370000000000    -16.770610000000001     -0.427220000000000
H       8.514559999999999    -15.394480000000000     -1.342250000000000
H       9.114089999999999    -14.357830000000000      0.732090000000000
H       8.324260000000001    -15.732300000000000      1.647770000000000
H      11.300020000000000    -14.954580000000000      1.743310000000000
H      10.063980000000001    -14.603560000000000      3.011540000000000
H      10.520300000000001    -16.312100000000001      2.647970000000000
H       9.335279999999999    -18.358010000000000     -1.450530000000000
H       8.402690000000000    -17.459250000000001     -2.711860000000000
H      10.114010000000000    -16.999500000000001     -2.353620000000000
Mg      2.673890000000000    -10.572480000000001      3.004270000000000
C       4.401110000000000     -8.579780000000000      3.748280000000000
C       6.513940000000000     -7.834550000000000      3.093460000000000
O       5.314380000000000     -8.448130000000001      2.675990000000000
C       3.717340000000000     -7.283760000000000      4.120520000000000
C       7.651530000000000     -8.294490000000000      2.189120000000000
H       5.738300000000000    -10.704210000000000      3.418880000000000
H       4.814660000000000     -9.112190000000000      4.631560000000000
H       6.406870000000000     -6.733700000000000      3.001340000000000
H       6.797540000000000     -8.101360000000000      4.136280000000000
H       7.424420000000000     -8.052379999999999      1.129120000000000
H       8.591390000000001     -7.781440000000000      2.482560000000000
H       7.804230000000000     -9.390440000000000      2.281270000000000
H       3.285890000000000     -6.815780000000000      3.217330000000000
H       2.906390000000000     -7.511630000000000      4.842640000000000
H       4.447220000000000     -6.594840000000000      4.588050000000000
H       1.440710000000000    -11.410790000000000      5.272890000000000
C      -0.312210000000000    -10.599830000000001      4.274360000000000
C       1.182300000000000    -10.544750000000001      4.632520000000000
C      -0.682720000000000    -11.829620000000000      3.437130000000000
H      -0.898050000000000    -10.615780000000001      5.219670000000000
H      -0.585880000000000     -9.681839999999999      3.730190000000000
H      -0.107890000000000    -11.820040000000001      2.489710000000000
H      -0.436300000000000    -12.748840000000000      4.005050000000000
C      -2.176310000000000    -11.874280000000001      3.108240000000000
H       1.365730000000000     -9.613220000000000      5.209060000000000
H      -2.777400000000000    -11.915229999999999      4.041430000000000
H      -2.483090000000000    -10.987159999999999      2.516620000000000
H      -2.397910000000000    -12.784430000000000      2.510330000000000
C       2.633290000000000    -13.502530000000000      3.109870000000000
C       3.269620000000000    -14.711259999999999      2.993830000000000
C       4.568200000000000    -14.436489999999999      2.640660000000000
C       4.674470000000000    -13.062590000000000      2.567810000000000
N       3.474250000000000    -12.491890000000000      2.849660000000000
C       5.965830000000000    -12.361000000000001      2.249430000000000
N       6.420620000000000    -11.474420000000000      3.330350000000000
C       6.724530000000000    -12.029610000000000      4.675490000000000
H       2.828200000000000    -15.682200000000000      3.154680000000000
H       1.604910000000000    -13.361789999999999      3.379660000000000
H       5.355470000000000    -15.156720000000000      2.471100000000000
H       6.763560000000000    -13.098140000000001      2.018970000000000
H       5.845170000000000    -11.764550000000000      1.323500000000000
C       7.608060000000000    -13.287649999999999      4.580220000000000
C       7.503200000000000    -10.950600000000000      5.453490000000000
C       5.438740000000000    -12.340690000000000      5.479060000000000
H       8.538390000000000    -13.056789999999999      4.020400000000000
H       7.882230000000000    -13.650660000000000      5.593630000000000
H       7.077200000000000    -14.114000000000001      4.065810000000000
H       6.895130000000000    -10.028180000000001      5.559690000000000
H       7.759500000000000    -11.306570000000001      6.475280000000000
H       8.444970000000000    -10.687550000000000      4.926180000000000
H       4.780090000000000    -11.446479999999999      5.526510000000000
H       4.863570000000000    -13.180080000000000      5.057030000000000
H       5.691330000000000    -12.641249999999999      6.517070000000000
Mg      0.089940000000000    -10.493790000000001      0.548920000000000
H      -1.377760000000000    -12.669870000000000      0.122860000000000
C       0.336220000000000    -13.034179999999999     -1.142270000000000
C      -0.743300000000000    -12.121230000000001     -0.604990000000000
C       1.280340000000000    -13.433790000000000     -0.012460000000000
H      -0.132600000000000    -13.932040000000001     -1.599280000000000
H       0.900860000000000    -12.496490000000000     -1.929290000000000
H       1.694670000000000    -12.519679999999999      0.456540000000000
H       0.727790000000000    -13.997000000000000      0.770270000000000
C       2.424820000000000    -14.281290000000000     -0.551580000000000
H      -1.390140000000000    -11.751280000000000     -1.428480000000000
H       2.028020000000000    -15.217029999999999     -0.996550000000000
H       2.992140000000000    -13.714890000000000     -1.320890000000000
H       3.119380000000000    -14.543210000000000      0.267030000000000
C      -1.456510000000000     -7.267780000000000     -0.843010000000000
C      -2.211660000000000     -7.911150000000000      0.116890000000000
C      -1.349160000000000     -8.255400000000000      1.132790000000000
C      -0.143770000000000     -7.841130000000000      0.758950000000000
N      -0.220700000000000     -7.209260000000000     -0.488470000000000
C       1.134740000000000     -8.117279999999999      1.501310000000000
N       1.787970000000000     -9.308009999999999      0.935070000000000
C       2.768320000000000     -9.175060000000000     -0.171850000000000
H      -3.265470000000000     -8.156940000000001      0.062420000000000
H      -1.820150000000000     -6.876260000000000     -1.777080000000000
H      -1.601070000000000     -8.813359999999999      2.016010000000000
H       0.867930000000000     -8.389160000000000      2.541620000000000
H       1.770550000000000     -7.221130000000000      1.599060000000000
C       3.466460000000000     -7.796360000000000     -0.208100000000000
C       3.862210000000000    -10.237579999999999      0.040860000000000
C       2.084520000000000     -9.445499999999999     -1.513310000000000
H       3.965910000000000     -7.583280000000000      0.758560000000000
H       4.243140000000000     -7.772880000000000     -1.002110000000000
H       2.742630000000000     -6.984550000000000     -0.424510000000000
H       3.443040000000000    -11.258950000000000      0.081100000000000
H       4.613350000000000    -10.214560000000001     -0.778400000000000
H       4.387460000000000    -10.053550000000000      0.997170000000000
H       1.645320000000000    -10.457649999999999     -1.511420000000000
H       1.280040000000000     -8.718240000000000     -1.709220000000000
H       2.818040000000000     -9.384390000000000     -2.345000000000000

-C 0
6-31g(d,p)
****
-H 0
6-31g(d,p)
****
-Mg 0
6-31g(d,p)
****
-N 0
6-31+g(d,p)
****
-Na 0
6-31g(d,p)
****
-O 0
6-31+g(d,p)
****


