%chk=lowest10_c2_a1_speciation0_speciation3_speciationDFT39_rank06_E203.81.chk
%nprocshared=20
%mem=40GB
#p opt=loose PM7/gen scf=xqc 

lowest10_c2_a1_speciation0_speciation3_speciationDFT39_rank06_E203.81 DFT input

0 1
Na     -0.372980000000000     -0.049810000000000      0.033440000000000
C      -0.274410000000000      1.430360000000000     -2.735140000000000
C      -2.511740000000000      0.884710000000000     -2.260580000000000
O      -1.154020000000000      0.624120000000000     -1.978390000000000
C       0.031360000000000      2.743140000000000     -2.019630000000000
C      -3.003920000000000     -0.034470000000000     -3.370870000000000
H       0.677990000000000      0.871290000000000     -2.842310000000000
H      -0.643260000000000      1.612850000000000     -3.767420000000000
H      -3.095790000000000      0.667880000000000     -1.339700000000000
H      -2.706550000000000      1.952530000000000     -2.504770000000000
H      -2.848860000000000     -1.096280000000000     -3.082720000000000
H      -4.085990000000000      0.137790000000000     -3.544930000000000
H      -2.451350000000000      0.168430000000000     -4.310990000000000
H       0.445160000000000      2.546010000000000     -1.009100000000000
H       0.783720000000000      3.312370000000000     -2.605090000000000
H      -0.884460000000000      3.360660000000000     -1.922170000000000
C      -0.426820000000000     -1.739190000000000      2.747310000000000
C      -1.810920000000000     -2.736350000000000      1.142720000000000
O      -1.133940000000000     -1.566050000000000      1.538570000000000
C       0.962790000000000     -2.326600000000000      2.507600000000000
C      -2.406070000000000     -2.498230000000000     -0.241370000000000
H      -0.289120000000000     -0.729370000000000      3.188730000000000
H      -0.999820000000000     -2.330540000000000      3.494740000000000
H      -1.119350000000000     -3.601170000000000      1.065170000000000
H      -2.639450000000000     -2.961460000000000      1.848180000000000
H      -1.601850000000000     -2.270550000000000     -0.973890000000000
H      -2.954930000000000     -3.400040000000000     -0.583880000000000
H      -3.109060000000000     -1.638870000000000     -0.210910000000000
H       1.520830000000000     -1.707500000000000      1.775230000000000
H       1.527600000000000     -2.339280000000000      3.463210000000000
H       0.895080000000000     -3.365380000000000      2.127150000000000
C      -0.958370000000000      2.115240000000000      2.262100000000000
C       1.357150000000000      2.231460000000000      1.878450000000000
O       0.153190000000000      1.550330000000000      1.596680000000000
C      -1.637900000000000      3.164390000000000      1.388420000000000
C       2.063660000000000      1.596640000000000      3.070320000000000
H      -1.687640000000000      1.298520000000000      2.450890000000000
H      -0.696470000000000      2.534670000000000      3.259070000000000
H       2.014230000000000      2.132220000000000      0.989570000000000
H       1.211330000000000      3.323980000000000      2.031880000000000
H       2.244880000000000      0.517920000000000      2.878680000000000
H       3.039530000000000      2.099380000000000      3.233600000000000
H       1.446630000000000      1.701440000000000      3.986070000000000
H      -1.951340000000000      2.714330000000000      0.422360000000000
H      -2.538630000000000      3.552080000000000      1.909280000000000
H      -0.948550000000000      4.010440000000000      1.189060000000000
C       3.000510000000000     -0.448750000000000     -0.545770000000000
C       1.547060000000000     -1.771010000000000     -1.834390000000000
O       1.657290000000000     -0.769230000000000     -0.842610000000000
C       3.495770000000000      0.688600000000000     -1.432740000000000
C       1.512180000000000     -3.158960000000000     -1.204940000000000
H       3.037040000000000     -0.107600000000000      0.509860000000000
H       3.678250000000000     -1.328730000000000     -0.607950000000000
H       0.585860000000000     -1.611720000000000     -2.368400000000000
H       2.345170000000000     -1.703010000000000     -2.606530000000000
H       0.676250000000000     -3.227750000000000     -0.481190000000000
H       1.359620000000000     -3.921750000000000     -1.996890000000000
H       2.463470000000000     -3.373630000000000     -0.677310000000000
H       2.839510000000000      1.577220000000000     -1.322370000000000
H       4.527400000000000      0.968140000000000     -1.133150000000000
H       3.504120000000000      0.376690000000000     -2.497030000000000
Na    -10.670959999999999    -13.289999999999999      8.653810000000000
C      -8.368350000000000    -10.901830000000000      7.462690000000000
C      -7.591610000000000    -13.017189999999999      6.960560000000000
O      -8.632059999999999    -12.282520000000000      7.563130000000000
C      -9.515440000000000    -10.145460000000000      8.117410000000000
C      -7.912800000000000    -14.499190000000000      7.088510000000000
H      -7.429640000000000    -10.637070000000000      8.000560000000000
H      -8.310829999999999    -10.584230000000000      6.396530000000000
H      -7.513570000000000    -12.775930000000001      5.876630000000000
H      -6.622010000000000    -12.829060000000000      7.475650000000000
H      -8.874860000000000    -14.723549999999999      6.579740000000000
H      -7.108040000000000    -15.105350000000000      6.622470000000000
H      -8.000050000000000    -14.777220000000000      8.160760000000000
H      -9.600910000000001    -10.437440000000000      9.186109999999999
H      -9.336209999999999     -9.051760000000000      8.055370000000000
H     -10.470400000000000    -10.384790000000001      7.602150000000000
Mg     -1.393850000000000     -9.313120000000000      3.701350000000000
H      -1.514260000000000     -6.509680000000000      3.999060000000000
C      -1.576640000000000     -7.004310000000000      1.864440000000000
C      -1.043200000000000     -7.206470000000000      3.275690000000000
C      -3.090780000000000     -7.180350000000000      1.862700000000000
H      -1.313960000000000     -6.000060000000000      1.473960000000000
H      -1.107030000000000     -7.768520000000000      1.210490000000000
H      -3.345310000000000     -8.110370000000000      2.387530000000000
H      -3.562680000000000     -6.343690000000000      2.419140000000000
C      -3.645520000000000     -7.258960000000000      0.445590000000000
H       0.057080000000000     -7.045640000000000      3.277750000000000
H      -3.410510000000000     -6.331050000000000     -0.114760000000000
H      -3.208480000000000     -8.132360000000000     -0.087540000000000
H      -4.746720000000000     -7.393520000000000      0.488270000000000
C      -0.661590000000000    -12.279840000000000     -0.709970000000000
C      -1.760120000000000    -11.640850000000000     -0.180070000000000
C      -1.298730000000000    -10.786860000000001      0.805070000000000
C       0.024800000000000    -10.900190000000000      0.876960000000000
N       0.505650000000000    -11.824130000000000     -0.074170000000000
C       0.906760000000000    -10.152440000000000      1.835530000000000
N       0.780180000000000    -10.723920000000000      3.189430000000000
C       1.974720000000000    -11.431680000000000      3.701900000000000
H      -2.788790000000000    -11.793180000000000     -0.482660000000000
H      -0.684100000000000    -13.021500000000000     -1.496490000000000
H      -1.894920000000000    -10.130430000000000      1.409980000000000
H       0.622050000000000     -9.084420000000000      1.850090000000000
H       1.944320000000000    -10.160500000000001      1.461420000000000
C       3.062390000000000    -10.398759999999999      4.044530000000000
C       1.601310000000000    -12.191670000000000      4.989710000000000
C       2.483670000000000    -12.497490000000001      2.704950000000000
H       2.667100000000000     -9.664190000000000      4.780730000000000
H       3.951930000000000    -10.893370000000001      4.484480000000000
H       3.383070000000000     -9.832490000000000      3.147970000000000
H       0.790210000000000    -12.918060000000001      4.788810000000000
H       2.472800000000000    -12.753410000000001      5.386730000000000
H       1.279670000000000    -11.520239999999999      5.798640000000000
H       1.672810000000000    -13.224309999999999      2.483800000000000
H       2.834100000000000    -12.071350000000001      1.747820000000000
H       3.341770000000000    -13.049560000000000      3.142140000000000
Mg     -1.163630000000000    -12.343999999999999      3.415070000000000
H      -2.246470000000000    -14.620810000000001      2.246950000000000
C      -0.546480000000000    -15.398960000000001      3.395110000000000
C      -1.222270000000000    -14.319440000000000      2.544890000000000
C      -1.365940000000000    -15.791240000000000      4.629290000000000
H      -0.453200000000000    -16.304169999999999      2.758760000000000
H       0.479530000000000    -15.083539999999999      3.687210000000000
H      -2.395030000000000    -16.059609999999999      4.306380000000000
H      -0.901800000000000    -16.686470000000000      5.094900000000000
C      -1.423840000000000    -14.701430000000000      5.690970000000000
H      -0.617900000000000    -14.191760000000000      1.620310000000000
H      -0.408310000000000    -14.485500000000000      6.082190000000000
H      -1.856060000000000    -13.781340000000000      5.272060000000000
H      -2.061850000000000    -15.039940000000000      6.534090000000000
C      -1.688080000000000     -7.823660000000000      7.584060000000000
C      -0.388120000000000     -7.950960000000000      7.148890000000000
C      -0.300830000000000     -9.156090000000001      6.484070000000000
C      -1.498240000000000     -9.746390000000000      6.503960000000000
N      -2.432150000000000     -8.943260000000000      7.198700000000000
C      -1.837150000000000    -11.093000000000000      5.927140000000000
N      -2.321640000000000    -11.003200000000000      4.535270000000000
C      -3.789900000000000    -11.136060000000001      4.317310000000000
H       0.408120000000000     -7.238170000000000      7.306640000000000
H      -2.083740000000000     -6.987180000000000      8.143050000000001
H       0.600640000000000     -9.532330000000000      6.030620000000000
H      -2.500390000000000    -11.644230000000000      6.614700000000000
H      -0.914550000000000    -11.694710000000001      5.914720000000000
C      -4.539110000000000     -9.989850000000001      5.019460000000000
C      -4.106450000000000    -11.082240000000001      2.812090000000000
C      -4.319860000000000    -12.504420000000000      4.803440000000000
H      -4.164180000000000     -9.006980000000000      4.657200000000000
H      -5.629700000000000    -10.047960000000000      4.821460000000000
H      -4.403500000000000    -10.044919999999999      6.116270000000000
H      -3.579330000000000    -11.891909999999999      2.264830000000000
H      -5.198330000000000    -11.200650000000000      2.636570000000000
H      -3.831110000000000    -10.123290000000001      2.369620000000000
H      -3.813040000000000    -13.326330000000000      4.255550000000000
H      -4.198100000000000    -12.666530000000000      5.889440000000000
H      -5.406980000000000    -12.588120000000000      4.594940000000000

-C 0
6-31g(d,p)
****
-H 0
6-31g(d,p)
****
-Mg 0
6-31g(d,p)
****
-N 0
6-31+g(d,p)
****
-Na 0
6-31g(d,p)
****
-O 0
6-31+g(d,p)
****


