%chk=lowest10_c2_a1_speciation3_speciation3_speciationDFT133_rank05_E239.55.chk
%nprocshared=20
%mem=40GB
#p opt=loose PM7/gen scf=xqc 

lowest10_c2_a1_speciation3_speciation3_speciationDFT133_rank05_E239.55 DFT input

0 1
Na     -0.110570000000000      0.361190000000000      0.010370000000000
C       0.065750000000000     -0.402500000000000      3.053930000000000
C      -0.476560000000000      1.878890000000000      2.886210000000000
O       0.056470000000000      0.747420000000000      2.233070000000000
C      -1.237760000000000     -1.185580000000000      2.927320000000000
C       0.636620000000000      2.666130000000000      3.564710000000000
H       0.890860000000000     -1.055010000000000      2.700930000000000
H       0.290830000000000     -0.167410000000000      4.116590000000000
H      -0.944670000000000      2.526210000000000      2.112930000000000
H      -1.286090000000000      1.623480000000000      3.605520000000000
H       1.406650000000000      2.956120000000000      2.818090000000000
H       0.216730000000000      3.583860000000000      4.025430000000000
H       1.114210000000000      2.052130000000000      4.355460000000000
H      -1.425080000000000     -1.455810000000000      1.867540000000000
H      -1.163020000000000     -2.119510000000000      3.523080000000000
H      -2.092840000000000     -0.589720000000000      3.306010000000000
C      -0.073940000000000      1.163130000000000     -3.088140000000000
C       1.039060000000000      2.783400000000000     -1.815290000000000
O       0.131880000000000      1.705570000000000     -1.801950000000000
C       0.983840000000000      0.116290000000000     -3.432150000000000
C       1.315070000000000      3.192160000000000     -0.371830000000000
H      -1.057740000000000      0.648140000000000     -3.068640000000000
H      -0.148110000000000      1.946560000000000     -3.874010000000000
H       2.009320000000000      2.496830000000000     -2.274530000000000
H       0.598030000000000      3.652860000000000     -2.348520000000000
H       1.756930000000000      2.342950000000000      0.192700000000000
H       2.023720000000000      4.045780000000000     -0.343250000000000
H       0.369080000000000      3.493360000000000      0.126140000000000
H       1.022990000000000     -0.663740000000000     -2.644160000000000
H       0.724170000000000     -0.367350000000000     -4.397010000000000
H       1.985060000000000      0.580990000000000     -3.531610000000000
C      -3.134850000000000      0.094410000000000     -0.878490000000000
C      -2.263410000000000     -2.084610000000000     -0.993790000000000
O      -1.982090000000000     -0.717550000000000     -0.781780000000000
C      -3.787790000000000      0.273050000000000      0.487950000000000
C      -2.087000000000000     -2.443680000000000     -2.464250000000000
H      -2.812540000000000      1.094160000000000     -1.240570000000000
H      -3.868160000000000     -0.284800000000000     -1.624860000000000
H      -1.533280000000000     -2.673200000000000     -0.400310000000000
H      -3.270210000000000     -2.382460000000000     -0.624700000000000
H      -1.061230000000000     -2.184320000000000     -2.801380000000000
H      -2.243480000000000     -3.533880000000000     -2.601160000000000
H      -2.821240000000000     -1.892920000000000     -3.087090000000000
H      -3.061740000000000      0.712080000000000      1.204980000000000
H      -4.656380000000000      0.958560000000000      0.395890000000000
H      -4.142130000000000     -0.702340000000000      0.880180000000000
C       1.631720000000000     -2.590310000000000     -0.388250000000000
C       2.832590000000000     -0.768250000000000      0.481590000000000
O       1.581050000000000     -1.240040000000000      0.023070000000000
C       1.306930000000000     -3.522690000000000      0.773400000000000
C       3.637460000000000     -0.163100000000000     -0.662540000000000
H       0.859220000000000     -2.730030000000000     -1.172990000000000
H       2.601860000000000     -2.862360000000000     -0.860110000000000
H       2.638310000000000      0.032650000000000      1.226710000000000
H       3.420130000000000     -1.549580000000000      1.012910000000000
H       3.060580000000000      0.651160000000000     -1.143810000000000
H       4.585210000000000      0.258440000000000     -0.267180000000000
H       3.876070000000000     -0.933430000000000     -1.423580000000000
H       0.314180000000000     -3.272300000000000      1.202460000000000
H       1.283480000000000     -4.569970000000000      0.408890000000000
H       2.075640000000000     -3.436880000000000      1.568280000000000
Na     -6.567440000000000    -15.876030000000000     -2.195860000000000
C      -9.320349999999999    -17.264600000000002     -2.986600000000000
C      -9.728330000000000    -15.614179999999999     -1.367260000000000
O      -8.769990000000000    -16.463509999999999     -1.961430000000000
C      -9.247389999999999    -16.554310000000001     -4.334430000000000
C     -10.323309999999999    -16.284350000000000     -0.137220000000000
H      -8.709809999999999    -18.189299999999999     -3.050590000000000
H     -10.358829999999999    -17.594470000000001     -2.762110000000000
H      -9.208090000000000    -14.684670000000001     -1.049540000000000
H     -10.527830000000000    -15.294000000000000     -2.073070000000000
H      -9.514200000000001    -16.549360000000000      0.576510000000000
H     -11.032870000000001    -15.591469999999999      0.360140000000000
H     -10.864179999999999    -17.207879999999999     -0.429790000000000
H      -8.198580000000000    -16.272079999999999     -4.562100000000000
H      -9.614879999999999    -17.235350000000000     -5.130260000000000
H      -9.875209999999999    -15.639960000000000     -4.329920000000000
C      -3.703110000000000    -14.657240000000000     -1.265650000000000
C      -5.068400000000000    -15.070919999999999      0.586500000000000
O      -5.020170000000000    -14.880870000000000     -0.809450000000000
C      -2.982880000000000    -15.973390000000000     -1.549430000000000
C      -6.485120000000000    -15.485670000000001      0.967360000000000
H      -3.779150000000000    -14.101300000000000     -2.224260000000000
H      -3.115410000000000    -14.010059999999999     -0.576770000000000
H      -4.383720000000000    -15.882740000000000      0.914150000000000
H      -4.826110000000000    -14.122510000000000      1.113010000000000
H      -6.760600000000000    -16.433019999999999      0.455960000000000
H      -6.555050000000000    -15.639270000000000      2.064430000000000
H      -7.207230000000000    -14.697039999999999      0.667010000000000
H      -3.575830000000000    -16.590150000000001     -2.255520000000000
H      -1.995830000000000    -15.763220000000000     -2.006890000000000
H      -2.819750000000000    -16.547239999999999     -0.615280000000000
C      -6.197900000000000    -13.307570000000000     -4.046830000000000
C      -5.463650000000000    -15.096450000000001     -5.375530000000000
O      -5.899800000000000    -14.688420000000001     -4.095900000000000
C      -7.673740000000000    -13.067880000000001     -4.343150000000000
C      -3.943880000000000    -15.037350000000000     -5.458170000000000
H      -5.986020000000000    -12.952389999999999     -3.015860000000000
H      -5.553000000000000    -12.700300000000000     -4.721920000000000
H      -5.784880000000000    -16.148779999999999     -5.522240000000000
H      -5.931910000000000    -14.514760000000001     -6.201950000000000
H      -3.495380000000000    -15.661830000000000     -4.657120000000000
H      -3.609850000000000    -15.422269999999999     -6.443950000000000
H      -3.591920000000000    -13.991759999999999     -5.340130000000000
H      -8.302790000000000    -13.632899999999999     -3.622890000000000
H      -7.901220000000000    -11.985650000000000     -4.245510000000000
H      -7.919870000000000    -13.394250000000000     -5.374780000000000
C      -5.215140000000000    -18.744430000000001     -3.689060000000000
C      -6.201820000000000    -19.022770000000001     -1.579270000000000
O      -5.898860000000000    -18.117770000000000     -2.622930000000000
C      -6.201840000000000    -19.255810000000000     -4.732000000000000
C      -5.081470000000000    -19.047940000000001     -0.546750000000000
H      -4.563470000000000    -17.982520000000001     -4.165620000000000
H      -4.537160000000000    -19.560120000000001     -3.350290000000000
H      -7.127890000000000    -18.666329999999999     -1.080080000000000
H      -6.425030000000000    -20.049820000000000     -1.946880000000000
H      -4.908800000000000    -18.027249999999999     -0.151090000000000
H      -5.365440000000000    -19.714420000000000      0.294240000000000
H      -4.141130000000000    -19.422160000000002     -1.000600000000000
H      -6.837780000000000    -18.422350000000002     -5.096780000000000
H      -5.644490000000000    -19.684690000000000     -5.590690000000000
H      -6.852380000000000    -20.042549999999999     -4.297760000000000
Mg      3.022710000000000    -10.185750000000001     -3.701550000000000
C       6.014170000000000     -9.987539999999999     -3.052690000000000
C       6.044970000000000    -11.484500000000001     -4.865970000000000
O       5.258950000000000    -10.783300000000001     -3.936130000000000
C       6.072720000000000     -8.548380000000000     -3.536640000000000
C       5.131350000000000    -11.923000000000000     -6.001680000000000
H       5.500800000000000    -10.003220000000001     -2.069520000000000
H       7.031190000000000    -10.373120000000000     -2.882110000000000
H       6.859090000000000    -10.857939999999999     -5.294080000000000
H       6.462580000000000    -12.390060000000000     -4.389080000000000
H       4.725020000000000    -11.032520000000000     -6.523910000000000
H       5.688600000000000    -12.552800000000000     -6.725150000000000
H       4.274820000000000    -12.503590000000001     -5.600760000000000
H       5.044620000000000     -8.142020000000000     -3.642590000000000
H       6.627830000000000     -7.934720000000000     -2.795580000000000
H       6.594800000000000     -8.495210000000000     -4.513760000000000
H       2.560470000000000     -8.908490000000000     -6.124250000000000
C       0.492790000000000     -9.557750000000000     -5.762410000000000
C       1.976850000000000     -9.830990000000000     -5.924100000000000
C       0.224460000000000     -8.545500000000001     -4.641980000000000
H       0.110360000000000     -9.164990000000000     -6.724890000000000
H      -0.020690000000000    -10.515090000000001     -5.528210000000000
H       0.579740000000000     -8.942399999999999     -3.673920000000000
H       0.761690000000000     -7.594910000000000     -4.848440000000000
C      -1.267140000000000     -8.259850000000000     -4.519980000000000
H       2.175540000000000    -10.610680000000000     -6.685720000000000
H      -1.650630000000000     -7.846390000000000     -5.476280000000000
H      -1.818340000000000     -9.193230000000000     -4.275230000000000
H      -1.444100000000000     -7.518910000000000     -3.712000000000000
C       2.224510000000000     -8.074970000000000     -1.669180000000000
C       1.771250000000000     -7.953290000000000     -0.374130000000000
C       1.686860000000000     -9.235680000000000      0.139190000000000
C       2.079510000000000    -10.085739999999999     -0.873120000000000
N       2.396490000000000     -9.373089999999999     -1.959290000000000
C       2.164650000000000    -11.582129999999999     -0.798590000000000
N       2.357460000000000    -12.186040000000000     -2.132120000000000
C       1.186650000000000    -12.913330000000000     -2.676240000000000
H       1.529830000000000     -7.031860000000000      0.134410000000000
H       2.412620000000000     -7.268120000000000     -2.366800000000000
H       1.362070000000000     -9.515790000000001      1.130490000000000
H       3.026150000000000    -11.828989999999999     -0.167840000000000
H       1.285370000000000    -11.986710000000000     -0.269180000000000
C      -0.085800000000000    -12.042500000000000     -2.641070000000000
C       1.461880000000000    -13.261570000000001     -4.151520000000000
C       0.976280000000000    -14.230160000000000     -1.903820000000000
H       0.092870000000000    -11.108919999999999     -3.204280000000000
H      -0.940220000000000    -12.578889999999999     -3.103580000000000
H      -0.389460000000000    -11.768920000000000     -1.613110000000000
H       2.337340000000000    -13.918220000000000     -4.252920000000000
H       0.597150000000000    -13.800079999999999     -4.598370000000000
H       1.651380000000000    -12.348509999999999     -4.749470000000000
H       1.893530000000000    -14.854500000000000     -1.949060000000000
H       0.736400000000000    -14.051180000000000     -0.838440000000000
H       0.141450000000000    -14.810700000000001     -2.344670000000000
Mg      4.806830000000000    -13.398709999999999     -1.952540000000000
C       4.895900000000000    -15.871280000000000     -0.092740000000000
C       3.032010000000000    -14.822440000000000      0.948260000000000
O       4.020180000000000    -14.761340000000001     -0.061050000000000
C       4.229990000000000    -17.141800000000000     -0.611380000000000
C       3.591990000000000    -14.900160000000000      2.367840000000000
H       5.714600000000000    -15.601139999999999     -0.785080000000000
H       5.407800000000000    -16.044329999999999      0.871970000000000
H       2.475610000000000    -13.865810000000000      0.893500000000000
H       2.289990000000000    -15.620290000000001      0.742550000000000
H       4.337490000000000    -14.093950000000000      2.532300000000000
H       2.761120000000000    -14.777189999999999      3.091530000000000
H       4.056640000000000    -15.887320000000001      2.558730000000000
H       3.765720000000000    -16.968019999999999     -1.599990000000000
H       4.998070000000000    -17.936160000000001     -0.716430000000000
H       3.452720000000000    -17.492239999999999      0.094420000000000
H       3.742440000000000    -15.507070000000001     -3.281970000000000
C       5.787150000000000    -15.990629999999999     -3.773060000000000
C       4.665810000000000    -14.965730000000001     -3.562430000000000
C       5.362630000000000    -17.172129999999999     -4.663700000000000
H       6.673720000000000    -15.500240000000000     -4.221680000000000
H       6.075420000000000    -16.420079999999999     -2.796890000000000
H       6.220100000000000    -17.876329999999999     -4.730400000000000
H       4.513220000000000    -17.711079999999999     -4.189080000000000
C       4.964770000000000    -16.766660000000002     -6.082020000000000
H       4.479530000000000    -14.458819999999999     -4.525080000000000
H       4.063270000000000    -16.119959999999999     -6.073040000000000
H       5.801110000000000    -16.233820000000001     -6.580610000000000
H       4.722660000000000    -17.679279999999999     -6.667450000000000
C      10.205909999999999    -11.375870000000001     -3.236490000000000
C      10.970319999999999    -12.196190000000000     -2.425290000000000
C      10.107469999999999    -13.115340000000000     -1.858900000000000
C       8.906100000000000    -12.819789999999999     -2.318630000000000
N       8.978410000000000    -11.727890000000000     -3.197540000000000
C       7.640700000000000    -13.523300000000001     -1.967790000000000
N       6.660840000000000    -12.618140000000000     -1.362750000000000
C       6.900320000000000    -12.162160000000000      0.046990000000000
H      12.034160000000000    -12.123490000000000     -2.256260000000000
H      10.560710000000000    -10.545240000000000     -3.828720000000000
H      10.345700000000001    -13.907930000000000     -1.164360000000000
H       7.797530000000000    -14.425580000000000     -1.345050000000000
H       7.220050000000000    -13.877620000000000     -2.914250000000000
C       7.847160000000000    -10.944820000000000      0.050940000000000
C       5.580060000000000    -11.696289999999999      0.681000000000000
C       7.484400000000000    -13.267450000000000      0.957820000000000
H       7.419010000000000    -10.116339999999999     -0.549620000000000
H       7.997310000000000    -10.566509999999999      1.084800000000000
H       8.844860000000001    -11.189399999999999     -0.349520000000000
H       4.875390000000000    -12.540760000000001      0.761730000000000
H       5.750590000000000    -11.317290000000000      1.714880000000000
H       5.119300000000000    -10.873880000000000      0.097180000000000
H       6.801240000000000    -14.136699999999999      1.007690000000000
H       8.480340000000000    -13.604089999999999      0.608140000000000
H       7.624420000000000    -12.885910000000001      1.992730000000000

-C 0
6-31g(d,p)
****
-H 0
6-31g(d,p)
****
-Mg 0
6-31g(d,p)
****
-N 0
6-31+g(d,p)
****
-Na 0
6-31g(d,p)
****
-O 0
6-31+g(d,p)
****


