%chk=lowest10_c2_a1_speciation0_speciation0_speciationDFT11_rank04_E129.90.chk
%nprocshared=20
%mem=40GB
#p opt=loose PM7/gen scf=xqc 

lowest10_c2_a1_speciation0_speciation0_speciationDFT11_rank04_E129.90 DFT input

0 1
Na      0.000030000000000      2.197180000000000     -0.001360000000000
C      -1.158720000000000     -1.042550000000000     -0.001850000000000
C       1.157280000000000     -1.042570000000000     -0.000740000000000
O      -0.000730000000000     -0.239820000000000      0.002870000000000
C      -2.375020000000000     -0.124750000000000      0.001780000000000
C       2.373720000000000     -0.124320000000000      0.000960000000000
H      -1.203850000000000     -1.668110000000000     -0.921370000000000
H      -1.204540000000000     -1.680810000000000      0.909790000000000
H       1.203150000000000     -1.677660000000000      0.912870000000000
H       1.201920000000000     -1.672740000000000     -0.917950000000000
H       2.361620000000000      0.521500000000000      0.905330000000000
H       3.308750000000000     -0.722580000000000     -0.000170000000000
H       2.361630000000000      0.525030000000000     -0.900870000000000
H      -2.362720000000000      0.525920000000000     -0.899130000000000
H      -3.309650000000000     -0.723610000000000     -0.000580000000000
H      -2.362870000000000      0.519700000000000      0.907080000000000
Na      7.680270000000000    -16.204989999999999     -0.808620000000000
C       4.500880000000000    -15.035330000000000     -1.808430000000000
C       5.079250000000000    -14.038410000000001      0.192080000000000
O       5.492220000000000    -14.937220000000000     -0.811480000000000
C       4.981680000000000    -16.016439999999999     -2.867970000000000
C       6.172790000000000    -13.959530000000001      1.247380000000000
H       3.547640000000000    -15.426019999999999     -1.384680000000000
H       4.334570000000000    -14.050440000000000     -2.301320000000000
H       4.929730000000000    -13.016900000000000     -0.226310000000000
H       4.150650000000000    -14.399190000000001      0.688810000000000
H       7.119300000000000    -13.603170000000000      0.787280000000000
H       5.875140000000000    -13.255640000000000      2.052510000000000
H       6.344260000000000    -14.963820000000000      1.690850000000000
H       5.155320000000000    -17.013900000000000     -2.410080000000000
H       4.220850000000000    -16.114970000000000     -3.670200000000000
H       5.933100000000000    -15.655820000000000     -3.314610000000000
Mg     -2.452010000000000     -8.575910000000000     -1.762330000000000
H      -3.171830000000000    -11.118510000000001     -0.684510000000000
C      -4.969660000000000    -10.344110000000001     -1.620580000000000
C      -3.676600000000000    -10.139530000000001     -0.844500000000000
C      -4.781690000000000    -11.121130000000001     -2.932720000000000
H      -5.671570000000000    -10.917899999999999     -0.980970000000000
H      -5.397030000000000     -9.344360000000000     -1.819280000000000
H      -4.049180000000000    -10.616390000000001     -3.598090000000000
H      -4.412200000000000    -12.143750000000001     -2.705260000000000
C      -6.117710000000000    -11.253930000000000     -3.663870000000000
H      -3.902000000000000     -9.709330000000000      0.150210000000000
H      -6.868120000000000    -11.750529999999999     -3.011920000000000
H      -6.501420000000000    -10.254799999999999     -3.946490000000000
H      -5.995550000000000    -11.856320000000000     -4.588110000000000
C      -0.321930000000000    -13.187260000000000     -5.059960000000000
C      -1.588610000000000    -13.064800000000000     -4.533350000000000
C      -1.465450000000000    -13.062329999999999     -3.156390000000000
C      -0.168380000000000    -13.163250000000000     -2.859080000000000
N       0.621360000000000    -13.251200000000001     -4.019500000000000
C       0.388240000000000    -13.194699999999999     -1.469950000000000
N       0.036180000000000    -11.959720000000001     -0.762660000000000
C       0.190420000000000    -11.927670000000001      0.712360000000000
H      -2.506600000000000    -12.984880000000000     -5.102000000000000
H      -0.075480000000000    -13.220590000000000     -6.110890000000000
H      -2.268060000000000    -12.987470000000000     -2.438650000000000
H      -0.031310000000000    -14.087619999999999     -0.971160000000000
H       1.493460000000000    -13.287369999999999     -1.523600000000000
C       1.668050000000000    -12.155139999999999      1.079150000000000
C      -0.235660000000000    -10.541740000000001      1.214250000000000
C      -0.692350000000000    -12.982849999999999      1.423050000000000
H       2.306610000000000    -11.402400000000000      0.568370000000000
H       1.823780000000000    -12.067720000000000      2.175700000000000
H       1.999230000000000    -13.167260000000001      0.768920000000000
H      -1.305380000000000    -10.355960000000000      0.978770000000000
H      -0.109780000000000    -10.464110000000000      2.317490000000000
H       0.379020000000000     -9.753310000000001      0.735230000000000
H      -1.767060000000000    -12.825989999999999      1.190390000000000
H      -0.415690000000000    -14.020049999999999      1.149820000000000
H      -0.563130000000000    -12.909920000000000      2.526360000000000
Mg     -1.192300000000000    -10.612520000000000     -1.804320000000000
H      -0.482080000000000     -8.074610000000000     -2.900680000000000
C       0.114530000000000     -9.547079999999999     -4.378780000000000
C      -0.074450000000000     -9.109769999999999     -2.933580000000000
C      -1.150160000000000     -9.391540000000001     -5.237300000000000
H       0.912540000000000     -8.921659999999999     -4.829270000000000
H       0.446670000000000    -10.601179999999999     -4.363860000000000
H      -2.001680000000000     -9.960690000000000     -4.807090000000000
H      -1.428830000000000     -8.317489999999999     -5.290480000000000
C      -0.885260000000000     -9.881270000000001     -6.661020000000000
H       0.902840000000000     -9.104710000000001     -2.413780000000000
H      -0.030430000000000     -9.329260000000000     -7.107460000000000
H      -0.644390000000000    -10.961690000000001     -6.656440000000000
H      -1.780940000000000     -9.724880000000001     -7.297650000000000
C      -5.991340000000000     -7.545420000000000     -3.858750000000000
C      -4.777990000000000     -7.699810000000000     -4.491790000000000
C      -3.821640000000000     -7.079140000000000     -3.709780000000000
C      -4.431270000000000     -6.580040000000000     -2.632750000000000
N      -5.814400000000000     -6.834050000000000     -2.659230000000000
C      -3.744670000000000     -5.828810000000000     -1.534940000000000
N      -2.729180000000000     -6.678540000000000     -0.905750000000000
C      -1.712550000000000     -6.032000000000000     -0.039710000000000
H      -4.613480000000000     -8.215190000000000     -5.429680000000000
H      -6.940970000000000     -7.917530000000000     -4.213920000000000
H      -2.765470000000000     -7.007880000000000     -3.920190000000000
H      -3.300280000000000     -4.923800000000000     -1.988300000000000
H      -4.496530000000000     -5.529310000000000     -0.775090000000000
C      -2.410110000000000     -5.347820000000000      1.150200000000000
C      -0.772600000000000     -7.119150000000000      0.497710000000000
C      -0.853560000000000     -4.996380000000000     -0.806040000000000
H      -3.029430000000000     -6.087400000000000      1.702390000000000
H      -1.665140000000000     -4.914640000000000      1.851530000000000
H      -3.068800000000000     -4.524070000000000      0.804340000000000
H      -0.240270000000000     -7.619440000000000     -0.339200000000000
H      -0.007400000000000     -6.680880000000000      1.176890000000000
H      -1.347580000000000     -7.880470000000000      1.062580000000000
H      -0.321260000000000     -5.471320000000000     -1.657260000000000
H      -1.455510000000000     -4.150380000000000     -1.189970000000000
H      -0.092590000000000     -4.550300000000000     -0.126650000000000

-C 0
6-31g(d,p)
****
-H 0
6-31g(d,p)
****
-Mg 0
6-31g(d,p)
****
-N 0
6-31+g(d,p)
****
-Na 0
6-31g(d,p)
****
-O 0
6-31+g(d,p)
****


