%chk=lowest10_c2_a1_speciation3_speciation3_speciationDFT39_rank07_E237.12.chk
%nprocshared=20
%mem=40GB
#p opt=loose PM7/gen scf=xqc 

lowest10_c2_a1_speciation3_speciation3_speciationDFT39_rank07_E237.12 DFT input

0 1
Na      0.257020000000000     -0.197620000000000     -0.202670000000000
C      -1.132190000000000      1.412110000000000     -2.509020000000000
C       0.645990000000000      0.179250000000000     -3.430380000000000
O       0.073110000000000      0.718300000000000     -2.258980000000000
C      -2.338100000000000      0.479620000000000     -2.433920000000000
C       1.620280000000000      1.174840000000000     -4.046940000000000
H      -1.244570000000000      2.177820000000000     -1.713950000000000
H      -1.113870000000000      1.966870000000000     -3.471610000000000
H       1.212090000000000     -0.732720000000000     -3.140470000000000
H      -0.114670000000000     -0.152780000000000     -4.171150000000000
H       2.402370000000000      1.450800000000000     -3.307520000000000
H       2.107340000000000      0.719070000000000     -4.933470000000000
H       1.083660000000000      2.092470000000000     -4.363540000000000
H      -2.373120000000000     -0.030470000000000     -1.449120000000000
H      -3.268110000000000      1.073610000000000     -2.557300000000000
H      -2.295520000000000     -0.284200000000000     -3.236580000000000
C       1.787520000000000     -1.662070000000000      2.186440000000000
C       3.327060000000000     -0.683200000000000      0.716180000000000
O       2.003180000000000     -1.129480000000000      0.897710000000000
C       1.435070000000000     -0.570270000000000      3.195470000000000
C       3.413630000000000      0.011710000000000     -0.639460000000000
H       0.912110000000000     -2.341570000000000      2.112750000000000
H       2.637960000000000     -2.287320000000000      2.536300000000000
H       3.620370000000000      0.055640000000000      1.492300000000000
H       4.028660000000000     -1.544880000000000      0.714780000000000
H       2.721830000000000      0.880820000000000     -0.673540000000000
H       4.447170000000000      0.372500000000000     -0.821980000000000
H       3.132080000000000     -0.695220000000000     -1.448520000000000
H       0.571880000000000      0.025040000000000      2.833010000000000
H       1.160270000000000     -1.037440000000000      4.164340000000000
H       2.296120000000000      0.106530000000000      3.364820000000000
C      -1.032680000000000     -3.081230000000000     -0.130500000000000
C      -2.504890000000000     -1.708940000000000      1.084100000000000
O      -1.262310000000000     -1.799990000000000      0.420300000000000
C      -1.526310000000000     -3.149850000000000     -1.572100000000000
C      -2.347650000000000     -2.042990000000000      2.563080000000000
H       0.065010000000000     -3.253460000000000     -0.133720000000000
H      -1.473860000000000     -3.898740000000000      0.482050000000000
H      -2.853790000000000     -0.658840000000000      0.998950000000000
H      -3.294910000000000     -2.334050000000000      0.611530000000000
H      -1.592080000000000     -1.376130000000000      3.029700000000000
H      -3.318680000000000     -1.898880000000000      3.080920000000000
H      -2.025420000000000     -3.096850000000000      2.688900000000000
H      -1.028120000000000     -2.369670000000000     -2.186300000000000
H      -1.284290000000000     -4.146120000000000     -1.998670000000000
H      -2.624710000000000     -3.000430000000000     -1.614990000000000
C      -1.427450000000000      2.039440000000000      1.797300000000000
C       0.429030000000000      2.869000000000000      0.618940000000000
O      -0.396110000000000      1.749900000000000      0.876740000000000
C      -2.682530000000000      2.517230000000000      1.074780000000000
C       1.602070000000000      2.917730000000000      1.591530000000000
H      -1.671480000000000      1.098580000000000      2.333370000000000
H      -1.114940000000000      2.766160000000000      2.577930000000000
H       0.838890000000000      2.755640000000000     -0.407580000000000
H      -0.133180000000000      3.828940000000000      0.623600000000000
H       2.185620000000000      1.977940000000000      1.531620000000000
H       2.268040000000000      3.765700000000000      1.327120000000000
H       1.243420000000000      3.053030000000000      2.632010000000000
H      -3.011650000000000      1.760440000000000      0.331960000000000
H      -3.497510000000000      2.670880000000000      1.812710000000000
H      -2.488730000000000      3.475190000000000      0.550580000000000
Na     -1.946740000000000      3.783210000000000      8.804240000000000
C      -2.657020000000000      1.726540000000000      6.479410000000000
C      -2.484050000000000      3.885050000000000      5.572630000000000
O      -2.682660000000000      3.115050000000000      6.738870000000000
C      -1.238360000000000      1.175940000000000      6.584860000000000
C      -3.827120000000000      4.259110000000000      4.962640000000000
H      -3.277630000000000      1.232070000000000      7.255610000000000
H      -3.117330000000000      1.464460000000000      5.501030000000000
H      -1.954190000000000      4.816990000000000      5.866220000000000
H      -1.831670000000000      3.383480000000000      4.824220000000000
H      -4.441720000000000      4.804290000000000      5.710760000000000
H      -3.668450000000000      4.911050000000000      4.079070000000000
H      -4.370240000000000      3.345270000000000      4.645040000000000
H      -0.811410000000000      1.408460000000000      7.582610000000000
H      -1.260140000000000      0.073890000000000      6.453710000000000
H      -0.587840000000000      1.614990000000000      5.800960000000000
C      -1.451070000000000      5.865390000000000     11.251130000000000
C      -3.054360000000000      6.698470000000000      9.768459999999999
O      -2.004300000000000      5.777190000000000      9.955660000000000
C      -2.213540000000000      4.989920000000000     12.242670000000000
C      -3.703150000000000      6.419690000000000      8.417490000000001
H      -0.412050000000000      5.477660000000000     11.189470000000000
H      -1.370780000000000      6.915050000000000     11.612330000000000
H      -3.840090000000000      6.587060000000000     10.546600000000000
H      -2.659590000000000      7.737610000000000      9.760700000000000
H      -4.107370000000000      5.384950000000000      8.390020000000000
H      -4.535020000000000      7.132740000000000      8.240090000000000
H      -2.954180000000000      6.529910000000000      7.604710000000000
H      -2.260920000000000      3.944760000000000     11.873170000000000
H      -1.686640000000000      4.998690000000000     13.218700000000000
H      -3.244890000000000      5.366960000000000     12.395949999999999
C       1.224650000000000      4.080850000000000      8.914460000000000
C       0.777850000000000      2.124910000000000     10.130940000000001
O       0.228770000000000      3.245570000000000      9.469980000000000
C       1.506340000000000      3.689260000000000      7.468450000000000
C       0.970960000000000      2.428070000000000     11.611020000000000
H       0.837580000000000      5.122020000000000      8.925829999999999
H       2.163650000000000      4.093490000000000      9.513249999999999
H       0.055650000000000      1.287720000000000     10.033250000000001
H       1.726350000000000      1.767630000000000      9.669169999999999
H       0.005430000000000      2.735440000000000     12.065020000000001
H       1.340520000000000      1.520380000000000     12.131650000000000
H       1.708620000000000      3.246180000000000     11.743410000000001
H       0.571090000000000      3.740480000000000      6.871450000000000
H       2.248910000000000      4.389690000000000      7.031990000000000
H       1.913580000000000      2.658240000000000      7.418490000000000
C      -3.066250000000000      1.165140000000000     10.848710000000001
C      -4.709200000000000      2.360390000000000      9.676500000000001
O      -3.326590000000000      2.208690000000000      9.932169999999999
C      -2.837980000000000     -0.150120000000000     10.113180000000000
C      -5.328630000000000      3.361590000000000     10.644019999999999
H      -2.138680000000000      1.424880000000000     11.400430000000000
H      -3.862040000000000      1.055940000000000     11.619809999999999
H      -4.821310000000000      2.757040000000000      8.644990000000000
H      -5.262750000000000      1.394490000000000      9.697509999999999
H      -4.801370000000000      4.333650000000000     10.571440000000001
H      -6.397710000000000      3.514340000000000     10.387390000000000
H      -5.258470000000000      2.990930000000000     11.687090000000000
H      -2.009140000000000     -0.040370000000000      9.383010000000001
H      -2.570540000000000     -0.941760000000000     10.843760000000000
H      -3.756790000000000     -0.456850000000000      9.572410000000000
Mg     -4.393260000000000      5.309210000000000     19.491350000000001
H      -3.293750000000000      2.838720000000000     20.345109999999998
C      -5.446590000000000      2.610840000000000     20.006300000000000
C      -4.241630000000000      3.389820000000000     20.516230000000000
C      -5.267100000000000      2.315800000000000     18.520309999999998
H      -5.585980000000000      1.661940000000000     20.566240000000001
H      -6.345050000000000      3.245310000000000     20.159289999999999
H      -4.977540000000000      3.239580000000000     18.001210000000000
H      -4.443690000000000      1.583510000000000     18.383949999999999
C      -6.552900000000000      1.796970000000000     17.888420000000000
H      -4.362330000000000      3.579460000000000     21.605229999999999
H      -6.876770000000000      0.857220000000000     18.380199999999999
H      -7.357900000000000      2.559180000000000     17.982630000000000
H      -6.380240000000000      1.605600000000000     16.808420000000002
C      -9.452220000000001      6.900820000000000     18.971800000000002
C      -8.597730000000000      6.163870000000000     18.182870000000001
C      -7.506340000000000      5.832530000000000     18.963850000000001
C      -7.683140000000000      6.345950000000000     20.178139999999999
N      -8.914260000000001      7.029380000000000     20.263770000000001
C      -6.713950000000000      6.220020000000000     21.318580000000001
N      -5.554570000000000      7.104040000000000     21.095240000000000
C      -5.441620000000000      8.258910000000000     22.015049999999999
H      -8.758800000000001      5.903440000000000     17.144179999999999
H     -10.396789999999999      7.319990000000000     18.653569999999998
H      -6.659530000000000      5.249040000000000     18.657689999999999
H      -6.375900000000000      5.170190000000000     21.403790000000001
H      -7.234570000000000      6.427570000000000     22.268920000000001
C      -5.013890000000000      7.757150000000000     23.405719999999999
C      -4.356250000000000      9.218900000000000     21.490189999999998
C      -6.752100000000000      9.077249999999999     22.076899999999998
H      -4.057320000000000      7.194530000000000     23.326550000000001
H      -4.864720000000000      8.606529999999999     24.103240000000000
H      -5.768680000000000      7.073820000000000     23.842600000000001
H      -4.610670000000000      9.573270000000001     20.472909999999999
H      -4.262320000000000     10.109059999999999     22.147440000000000
H      -3.360390000000000      8.752200000000000     21.460619999999999
H      -7.031160000000000      9.420890000000000     21.057659999999998
H      -7.603820000000000      8.510439999999999     22.494689999999999
H      -6.615700000000000      9.968859999999999     22.724180000000000
Mg     -5.412410000000000      8.087859999999999     18.732579999999999
H      -6.975650000000000      9.434620000000001     16.856020000000001
C      -6.378430000000000     11.001110000000001     18.271100000000001
C      -6.782480000000000      9.561410000000000     17.940329999999999
C      -5.171090000000000     11.485519999999999     17.460360000000001
H      -7.238080000000000     11.654100000000000     18.009840000000001
H      -6.188260000000000     11.111100000000000     19.361640000000001
H      -5.378790000000000     11.330700000000000     16.379539999999999
H      -5.037090000000000     12.574009999999999     17.637029999999999
C      -3.867480000000000     10.795339999999999     17.840940000000000
H      -7.725150000000000      9.340850000000000     18.487300000000001
H      -3.606790000000000     11.012140000000000     18.897179999999999
H      -3.952170000000000      9.707540000000000     17.703610000000001
H      -3.048280000000000     11.168150000000001     17.191260000000000
C      -0.240300000000000      5.060650000000000     19.940639999999998
C      -0.868200000000000      5.408140000000000     21.120670000000000
C      -1.840760000000000      6.326980000000000     20.792230000000000
C      -1.778290000000000      6.494220000000000     19.475220000000000
N      -0.757530000000000      5.687870000000000     18.946950000000001
C      -2.613900000000000      7.448830000000000     18.661180000000002
N      -3.844950000000000      6.824240000000000     18.142930000000000
C      -3.860500000000000      6.442950000000000     16.702660000000002
H      -0.636120000000000      5.046380000000000     22.114889999999999
H       0.577880000000000      4.365390000000000     19.840750000000000
H      -2.505980000000000      6.805890000000000     21.485399999999998
H      -1.992510000000000      7.956770000000000     17.903020000000001
H      -2.925370000000000      8.264320000000000     19.333580000000001
C      -2.777640000000000      5.385880000000000     16.423210000000001
C      -5.232950000000000      5.853750000000000     16.334569999999999
C      -3.668100000000000      7.667900000000000     15.778950000000000
H      -2.922640000000000      4.502500000000000     17.082840000000001
H      -2.820350000000000      5.047110000000000     15.367979999999999
H      -1.765910000000000      5.801260000000000     16.598769999999998
H      -6.044690000000000      6.585160000000000     16.532940000000000
H      -5.268330000000000      5.580360000000000     15.256970000000001
H      -5.443520000000000      4.937140000000000     16.890820000000001
H      -4.482360000000000      8.404120000000001     15.945250000000000
H      -2.694150000000000      8.172129999999999     15.913250000000000
H      -3.715460000000000      7.355400000000000     14.713250000000000

-C 0
6-31g(d,p)
****
-H 0
6-31g(d,p)
****
-Mg 0
6-31g(d,p)
****
-N 0
6-31+g(d,p)
****
-Na 0
6-31g(d,p)
****
-O 0
6-31+g(d,p)
****


