%chk=lowest10_c2_a1_speciation3_speciation3_speciationDFT11_rank03_E202.29.chk
%nprocshared=20
%mem=40GB
#p opt=loose PM7/gen scf=xqc 

lowest10_c2_a1_speciation3_speciation3_speciationDFT11_rank03_E202.29 DFT input

0 1
Na     -0.372960000000000     -0.050110000000000      0.033760000000000
C      -0.274320000000000      1.430200000000000     -2.734800000000000
C      -2.511700000000000      0.884620000000000     -2.260310000000000
O      -1.154000000000000      0.624090000000000     -1.977970000000000
C       0.031470000000000      2.743130000000000     -2.019550000000000
C      -3.003800000000000     -0.034440000000000     -3.370770000000000
H       0.678080000000000      0.871070000000000     -2.841790000000000
H      -0.643080000000000      1.612490000000000     -3.767130000000000
H      -3.095840000000000      0.667640000000000     -1.339520000000000
H      -2.706530000000000      1.952460000000000     -2.504360000000000
H      -2.848790000000000     -1.096300000000000     -3.082770000000000
H      -4.085860000000000      0.137830000000000     -3.544870000000000
H      -2.451200000000000      0.168560000000000     -4.310840000000000
H       0.445260000000000      2.546250000000000     -1.008960000000000
H       0.783870000000000      3.312210000000000     -2.605110000000000
H      -0.884320000000000      3.360710000000000     -1.922270000000000
C      -0.425520000000000     -1.740780000000000      2.747760000000000
C      -1.810220000000000     -2.737750000000000      1.143460000000000
O      -1.131640000000000     -1.568060000000000      1.538620000000000
C       0.964470000000000     -2.326240000000000      2.507500000000000
C      -2.404800000000000     -2.497790000000000     -0.240970000000000
H      -0.289130000000000     -0.730920000000000      3.189690000000000
H      -0.998300000000000     -2.333300000000000      3.494520000000000
H      -1.121260000000000     -3.606310000000000      1.068410000000000
H      -2.639660000000000     -2.959920000000000      1.848700000000000
H      -1.600430000000000     -2.270650000000000     -0.973480000000000
H      -2.955240000000000     -3.398060000000000     -0.584550000000000
H      -3.106730000000000     -1.637470000000000     -0.210220000000000
H       1.522220000000000     -1.705160000000000      1.776760000000000
H       1.528600000000000     -2.341880000000000      3.463420000000000
H       0.897380000000000     -3.362540000000000      2.122140000000000
C      -0.958400000000000      2.115020000000000      2.261970000000000
C       1.357160000000000      2.231210000000000      1.878290000000000
O       0.153170000000000      1.550130000000000      1.596550000000000
C      -1.637930000000000      3.164320000000000      1.388400000000000
C       2.063660000000000      1.596510000000000      3.070250000000000
H      -1.687690000000000      1.298290000000000      2.450640000000000
H      -0.696510000000000      2.534330000000000      3.258980000000000
H       2.014250000000000      2.131840000000000      0.989440000000000
H       1.211380000000000      3.323760000000000      2.031570000000000
H       2.244910000000000      0.517770000000000      2.878780000000000
H       3.039550000000000      2.099250000000000      3.233470000000000
H       1.446660000000000      1.701430000000000      3.986000000000000
H      -1.951450000000000      2.714430000000000      0.422290000000000
H      -2.538640000000000      3.551980000000000      1.909330000000000
H      -0.948590000000000      4.010390000000000      1.189140000000000
C       3.000400000000000     -0.448770000000000     -0.545530000000000
C       1.547050000000000     -1.771410000000000     -1.833890000000000
O       1.657210000000000     -0.769420000000000     -0.842320000000000
C       3.495680000000000      0.688530000000000     -1.432610000000000
C       1.512440000000000     -3.159420000000000     -1.204250000000000
H       3.036850000000000     -0.107450000000000      0.510040000000000
H       3.678160000000000     -1.328740000000000     -0.607530000000000
H       0.585790000000000     -1.612220000000000     -2.367860000000000
H       2.345000000000000     -1.703260000000000     -2.606200000000000
H       0.676550000000000     -3.228340000000000     -0.480440000000000
H       1.359870000000000     -3.922210000000000     -1.996210000000000
H       2.463700000000000     -3.374200000000000     -0.676620000000000
H       2.839470000000000      1.577210000000000     -1.322390000000000
H       4.527290000000000      0.968120000000000     -1.132990000000000
H       3.504120000000000      0.376540000000000     -2.496880000000000
Na      1.323040000000000     -9.583069999999999      4.508500000000000
C       4.104740000000000     -8.866640000000000      5.840120000000000
C       4.459810000000000    -10.457950000000000      4.149140000000000
O       3.525900000000000     -9.865850000000000      5.026260000000000
C       4.042620000000000     -7.501050000000000      5.162690000000000
C       5.057900000000000    -11.703840000000000      4.788710000000000
H       3.509200000000000     -8.813409999999999      6.775070000000000
H       5.143920000000000     -9.114699999999999      6.148970000000000
H       3.915760000000000    -10.758150000000001      3.227300000000000
H       5.256810000000000     -9.753720000000000      3.819950000000000
H       4.249000000000000    -12.414759999999999      5.062250000000000
H       5.746740000000000    -12.197279999999999      4.072550000000000
H       5.623110000000000    -11.430740000000000      5.703450000000000
H       2.993870000000000     -7.248590000000000      4.902260000000000
H       4.432880000000000     -6.727970000000000      5.857330000000000
H       4.656900000000000     -7.492680000000000      4.239320000000000
C      -1.560130000000000    -10.455620000000000      3.339110000000000
C      -0.213930000000000    -12.336259999999999      3.688850000000000
O      -0.247220000000000    -10.935790000000001      3.533920000000000
C      -2.262260000000000    -10.195779999999999      4.670220000000000
C       1.207400000000000    -12.744990000000000      4.059790000000000
H      -1.476550000000000     -9.483409999999999      2.808480000000000
H      -2.164290000000000    -11.118510000000001      2.680570000000000
H      -0.883900000000000    -12.673850000000000      4.508620000000000
H      -0.485310000000000    -12.836560000000000      2.734140000000000
H       1.512920000000000    -12.261559999999999      5.012610000000000
H       1.266680000000000    -13.845829999999999      4.183320000000000
H       1.914030000000000    -12.434020000000000      3.261350000000000
H      -1.652070000000000     -9.514360000000000      5.298200000000000
H      -3.247310000000000     -9.719950000000001      4.482010000000000
H      -2.430460000000000    -11.142400000000000      5.221810000000000
C       0.923750000000000     -7.688970000000000      1.986420000000000
C       0.250200000000000     -6.389070000000000      3.820800000000000
O       0.659700000000000     -7.664570000000000      3.374770000000000
C       2.395360000000000     -7.399300000000000      1.714370000000000
C      -1.268760000000000     -6.281270000000000      3.792820000000000
H       0.696260000000000     -8.712009999999999      1.617790000000000
H       0.268760000000000     -6.998130000000000      1.408800000000000
H       0.592520000000000     -6.272750000000000      4.870150000000000
H       0.721170000000000     -5.557720000000000      3.250860000000000
H      -1.718010000000000     -7.090680000000000      4.406340000000000
H      -1.579540000000000     -5.300080000000000      4.207760000000000
H      -1.642400000000000     -6.367710000000000      2.751840000000000
H       3.033320000000000     -8.134829999999999      2.249150000000000
H       2.593670000000000     -7.479130000000000      0.624940000000000
H       2.658160000000000     -6.375610000000000      2.052350000000000
C       0.061370000000000     -8.145390000000001      7.421340000000000
C       1.030500000000000    -10.272280000000000      7.635690000000000
O       0.720300000000000     -9.206030000000000      6.759980000000000
C       1.068990000000000     -7.124380000000000      7.936580000000000
C      -0.102520000000000    -11.290490000000000      7.668030000000000
H      -0.597090000000000     -7.644690000000000      6.681010000000000
H      -0.606690000000000     -8.493589999999999      8.240869999999999
H       1.939690000000000    -10.777369999999999      7.245340000000000
H       1.285040000000000     -9.928419999999999      8.663420000000000
H      -0.305870000000000    -11.663670000000000      6.644790000000000
H       0.186890000000000    -12.147770000000000      8.309250000000000
H      -1.027080000000000    -10.833159999999999      8.075450000000000
H       1.695170000000000     -6.749340000000000      7.100240000000000
H       0.528890000000000     -6.268210000000000      8.391859999999999
H       1.727380000000000     -7.581710000000000      8.703320000000000
Mg      6.087220000000000    -17.578350000000000     10.086890000000000
H       5.387290000000000    -14.808650000000000     10.107400000000000
C       7.330800000000000    -14.923999999999999      9.149740000000000
C       6.323540000000000    -15.405820000000000     10.183520000000000
C       6.775630000000000    -14.892329999999999      7.716960000000000
H       7.638550000000000    -13.892989999999999      9.419850000000000
H       8.209540000000001    -15.591480000000001      9.211050000000000
H       6.406520000000000    -15.892870000000000      7.405760000000000
H       5.934800000000000    -14.168390000000000      7.663010000000000
C       7.858120000000000    -14.429510000000001      6.741840000000000
H       6.733460000000000    -15.262100000000000     11.201570000000000
H       8.246210000000000    -13.431889999999999      7.039870000000000
H       8.700060000000001    -15.148310000000000      6.734340000000000
H       7.448490000000000    -14.358570000000000      5.712640000000000
C       1.901250000000000    -16.192250000000001      5.944820000000000
C       3.050830000000000    -15.479590000000000      6.219520000000000
C       2.938830000000000    -15.015760000000000      7.515560000000000
C       1.782380000000000    -15.440020000000001      8.016410000000000
N       1.060100000000000    -16.196510000000000      7.063250000000000
C       1.279540000000000    -15.160349999999999      9.392429999999999
N       2.218490000000000    -15.699339999999999     10.385070000000001
C       2.092410000000000    -15.238180000000000     11.787250000000000
H       3.876510000000000    -15.323259999999999      5.540670000000000
H       1.675890000000000    -16.687750000000001      5.009810000000000
H       3.666830000000000    -14.414420000000000      8.048090000000000
H       1.172830000000000    -14.064890000000000      9.486280000000001
H       0.290040000000000    -15.642020000000000      9.525670000000000
C       0.706530000000000    -15.626030000000000     12.335350000000000
C       3.168430000000000    -15.940860000000001     12.626270000000000
C       2.300970000000000    -13.710020000000000     11.929100000000000
H       0.551950000000000    -16.722030000000000     12.233160000000000
H       0.612130000000000    -15.352589999999999     13.407730000000001
H      -0.100140000000000    -15.103550000000000     11.779809999999999
H       4.182180000000000    -15.666980000000001     12.263980000000000
H       3.094310000000000    -15.642510000000000     13.695919999999999
H       3.049160000000000    -17.041060000000002     12.560160000000000
H       3.304430000000000    -13.409090000000001     11.560020000000000
H       1.531970000000000    -13.125010000000000     11.387150000000000
H       2.219800000000000    -13.409420000000001     12.997490000000001
Mg      3.964010000000000    -16.581160000000001      9.622090000000000
H       4.669040000000000    -19.349540000000001      9.580080000000001
C       3.401300000000000    -19.026990000000001      7.848960000000000
C       3.786960000000000    -18.735029999999998      9.291270000000001
C       4.566460000000000    -18.876470000000001      6.858550000000000
H       3.037290000000000    -20.073380000000000      7.792200000000000
H       2.575770000000000    -18.341470000000001      7.584120000000000
H       5.005890000000000    -17.857170000000000      6.904420000000000
H       5.356850000000000    -19.617460000000001      7.104390000000000
C       4.086180000000000    -19.153970000000001      5.434070000000000
H       2.951640000000000    -19.005810000000000      9.965040000000000
H       3.635070000000000    -20.167359999999999      5.368440000000000
H       3.324970000000000    -18.408500000000000      5.134150000000000
H       4.934090000000000    -19.095109999999998      4.720280000000000
C       9.657830000000001    -17.503219999999999      7.806630000000000
C       8.539709999999999    -18.200880000000002      7.403360000000000
C       8.038539999999999    -18.850850000000001      8.515219999999999
C       8.811660000000000    -18.547139999999999      9.557449999999999
N       9.868919999999999    -17.693960000000001      9.181260000000000
C       8.608350000000000    -19.049859999999999     10.951010000000000
N       7.295980000000000    -18.623500000000000     11.449380000000000
C       6.755990000000000    -19.289909999999999     12.659319999999999
H       8.136910000000000    -18.227239999999998      6.399590000000000
H      10.281390000000000    -16.889779999999998      7.171890000000000
H       7.168960000000000    -19.492090000000001      8.547870000000000
H       8.695639999999999    -20.151470000000000     10.916539999999999
H       9.402450000000000    -18.636910000000000     11.606809999999999
C       7.702480000000000    -19.043530000000001     13.848540000000000
C       5.388130000000000    -18.673839999999998     12.982139999999999
C       6.556050000000000    -20.812480000000001     12.458620000000000
H       7.850760000000000    -17.951770000000000     13.994740000000000
H       7.285350000000000    -19.473490000000002     14.784150000000000
H       8.692570000000000    -19.513110000000001     13.671609999999999
H       4.676510000000000    -18.851649999999999     12.147900000000000
H       4.956730000000000    -19.127369999999999     13.902559999999999
H       5.486570000000000    -17.581360000000000     13.142980000000000
H       5.857090000000000    -21.016140000000000     11.619800000000000
H       7.509020000000000    -21.343229999999998     12.265870000000000
H       6.131070000000000    -21.267969999999998     13.381190000000000

-C 0
6-31g(d,p)
****
-H 0
6-31g(d,p)
****
-Mg 0
6-31g(d,p)
****
-N 0
6-31+g(d,p)
****
-Na 0
6-31g(d,p)
****
-O 0
6-31+g(d,p)
****


