%chk=lowest10_c2_a1_speciation0_speciation0_speciationDFT133_rank10_E170.73.chk
%nprocshared=20
%mem=40GB
#p opt=loose PM7/gen scf=xqc 

lowest10_c2_a1_speciation0_speciation0_speciationDFT133_rank10_E170.73 DFT input

0 1
Na      0.000050000000000      2.183600000000000     -0.001200000000000
C      -1.158070000000000     -1.042490000000000     -0.001800000000000
C       1.159500000000000     -1.042750000000000     -0.000770000000000
O       0.000810000000000     -0.240800000000000     -0.000600000000000
C      -2.373940000000000     -0.122680000000000      0.001160000000000
C       2.375360000000000     -0.123590000000000      0.000370000000000
H      -1.204390000000000     -1.672530000000000     -0.918860000000000
H      -1.203670000000000     -1.677480000000000      0.911960000000000
H       1.205500000000000     -1.673420000000000      0.915240000000000
H       1.205690000000000     -1.675690000000000     -0.916030000000000
H       2.362400000000000      0.523250000000000      0.904090000000000
H       3.310950000000000     -0.721050000000000      0.000400000000000
H       2.363350000000000      0.525280000000000     -0.901810000000000
H      -2.361990000000000      0.527390000000000     -0.900190000000000
H      -3.310030000000000     -0.719350000000000      0.000120000000000
H      -2.361160000000000      0.522910000000000      0.905730000000000
Na     10.918100000000001    -14.899710000000001     -2.123340000000000
C       7.752200000000000    -13.737209999999999     -3.123500000000000
C       8.331820000000000    -12.739720000000000     -1.123000000000000
O       8.744199999999999    -13.637510000000001     -2.127420000000000
C       8.234000000000000    -14.718800000000000     -4.182290000000000
C       9.425910000000000    -12.661550000000000     -0.068320000000000
H       6.799540000000000    -14.128769999999999     -2.699220000000000
H       7.584670000000000    -12.752739999999999     -3.616810000000000
H       8.180460000000000    -11.717990000000000     -1.540420000000000
H       7.405760000000000    -13.103059999999999     -0.625030000000000
H      10.372210000000001    -12.305270000000000     -0.528690000000000
H       9.128930000000000    -11.958330000000000      0.737680000000000
H       9.597140000000000    -13.666290000000000      0.374340000000000
H       8.408350000000000    -15.715780000000001     -3.723540000000000
H       7.473880000000000    -14.818840000000000     -4.984970000000000
H       9.185480000000000    -14.357900000000001     -4.628620000000000
Mg      2.485120000000000    -10.300369999999999     -3.652190000000000
C       4.291710000000000     -8.202819999999999     -2.434900000000000
C       4.834050000000000    -10.094989999999999     -1.137930000000000
O       3.989180000000000     -9.538300000000000     -2.109900000000000
C       5.158410000000000     -8.130870000000000     -3.679890000000000
C       4.675130000000000    -11.607469999999999     -1.209940000000000
H       3.332600000000000     -7.686550000000000     -2.648240000000000
H       4.765380000000000     -7.654620000000000     -1.610630000000000
H       5.904070000000000     -9.843620000000000     -1.308750000000000
H       4.509250000000000     -9.764390000000001     -0.135730000000000
H       5.035030000000000    -11.979970000000000     -2.191020000000000
H       5.246980000000000    -12.093840000000000     -0.395070000000000
H       3.605470000000000    -11.886430000000001     -1.112070000000000
H       4.638850000000000     -8.616849999999999     -4.532720000000000
H       5.346910000000000     -7.065730000000000     -3.932750000000000
H       6.127870000000000     -8.637600000000001     -3.497930000000000
H       4.038400000000000    -12.069599999999999     -5.050060000000000
C       2.118240000000000    -13.062340000000001     -5.466390000000000
C       3.159990000000000    -12.495050000000001     -4.522030000000000
C       1.635670000000000    -12.013260000000001     -6.476410000000000
H       2.575190000000000    -13.917719999999999     -6.000010000000000
H       1.255900000000000    -13.424310000000000     -4.866400000000000
H       1.152150000000000    -11.167439999999999     -5.955380000000000
H       2.495800000000000    -11.617960000000000     -7.058240000000000
C       0.619660000000000    -12.621200000000000     -7.434730000000000
H       3.458930000000000    -13.219830000000000     -3.739640000000000
H       1.081310000000000    -13.469420000000000     -7.982160000000000
H      -0.267700000000000    -12.984819999999999     -6.873080000000000
H       0.288380000000000    -11.856999999999999     -8.168990000000001
C       1.518800000000000     -8.483710000000000     -5.878770000000000
C       0.456920000000000     -7.665140000000000     -6.193790000000000
C      -0.392730000000000     -7.678470000000000     -5.099890000000000
C       0.184930000000000     -8.515940000000001     -4.169590000000000
N       1.328410000000000     -9.002319999999999     -4.658000000000000
C      -0.341760000000000     -8.843529999999999     -2.802630000000000
N       0.354660000000000     -9.999060000000000     -2.201540000000000
C      -0.435170000000000    -11.249330000000000     -2.132530000000000
H       0.321560000000000     -7.124380000000000     -7.119020000000000
H       2.376900000000000     -8.702669999999999     -6.502850000000000
H      -1.329700000000000     -7.150810000000000     -5.000880000000000
H      -0.163990000000000     -7.966490000000000     -2.174100000000000
H      -1.437510000000000     -8.964210000000000     -2.830260000000000
C      -1.031170000000000    -11.605140000000000     -3.506780000000000
C       0.495700000000000    -12.407220000000001     -1.722120000000000
C      -1.539160000000000    -11.120250000000000     -1.064650000000000
H      -0.214150000000000    -11.688269999999999     -4.244330000000000
H      -1.572770000000000    -12.571700000000000     -3.461600000000000
H      -1.743370000000000    -10.841650000000000     -3.872090000000000
H       0.933880000000000    -12.241289999999999     -0.729420000000000
H      -0.065530000000000    -13.365910000000000     -1.670090000000000
H       1.328180000000000    -12.528470000000000     -2.441910000000000
H      -1.093010000000000    -10.877250000000000     -0.077100000000000
H      -2.264610000000000    -10.323960000000000     -1.315410000000000
H      -2.104680000000000    -12.070029999999999     -0.967370000000000
Mg      1.513980000000000     -8.974040000000000     -0.015840000000000
C      -0.417840000000000     -8.143580000000000      2.248910000000000
C      -1.974170000000000     -7.957680000000000      0.459370000000000
O      -0.649440000000000     -8.246290000000000      0.858170000000000
C      -1.059430000000000     -9.274279999999999      3.045940000000000
C      -2.449880000000000     -6.555110000000000      0.832930000000000
H       0.677140000000000     -8.199529999999999      2.384430000000000
H      -0.686700000000000     -7.153070000000000      2.659440000000000
H      -1.975820000000000     -7.991580000000000     -0.647720000000000
H      -2.678600000000000     -8.746409999999999      0.793070000000000
H      -1.711900000000000     -5.795770000000000      0.499330000000000
H      -3.420380000000000     -6.358710000000000      0.334590000000000
H      -2.610510000000000     -6.469720000000000      1.925410000000000
H      -0.743790000000000    -10.260350000000001      2.658190000000000
H      -0.741540000000000     -9.194340000000000      4.106410000000000
H      -2.163040000000000     -9.206840000000000      2.999050000000000
H       0.759860000000000    -11.205830000000001      1.331860000000000
C       2.329960000000000    -10.677720000000001      2.713300000000000
C       1.784930000000000    -10.792080000000000      1.285050000000000
C       2.114930000000000    -11.956170000000000      3.541330000000000
H       3.411790000000000    -10.439920000000001      2.690570000000000
H       1.799380000000000     -9.867680000000000      3.243720000000000
H       2.506810000000000    -11.770270000000000      4.564630000000000
H       1.026200000000000    -12.168650000000000      3.624540000000000
C       2.821150000000000    -13.185490000000000      2.972520000000000
H       2.414870000000000    -11.515200000000000      0.739430000000000
H       2.409900000000000    -13.456390000000001      1.978210000000000
H       3.911800000000000    -12.998279999999999      2.886360000000000
H       2.657900000000000    -14.047070000000000      3.654210000000000
C       6.852910000000000     -6.619880000000000      0.737000000000000
C       6.616980000000000     -5.820230000000000      1.839820000000000
C       5.326670000000000     -6.083250000000000      2.261130000000000
C       4.849110000000000     -6.983300000000000      1.422480000000000
N       5.820030000000000     -7.328810000000000      0.473670000000000
C       3.475090000000000     -7.557520000000000      1.449000000000000
N       2.752490000000000     -7.298540000000000      0.201520000000000
C       2.268280000000000     -5.900160000000000     -0.054910000000000
H       7.304480000000000     -5.111720000000000      2.277620000000000
H       7.758060000000000     -6.666150000000000      0.152030000000000
H       4.793800000000000     -5.636930000000000      3.087280000000000
H       2.884370000000000     -7.247540000000000      2.332470000000000
H       3.603960000000000     -8.640090000000001      1.535010000000000
C       3.401950000000000     -5.059840000000000     -0.676430000000000
C       1.122750000000000     -5.909280000000000     -1.079490000000000
C       1.743020000000000     -5.193840000000000      1.215930000000000
H       3.752100000000000     -5.520070000000000     -1.622940000000000
H       3.047290000000000     -4.034260000000000     -0.914190000000000
H       4.264240000000000     -4.952150000000000      0.000790000000000
H       0.249300000000000     -6.447120000000000     -0.675250000000000
H       0.785160000000000     -4.870770000000000     -1.302770000000000
H       1.443270000000000     -6.364940000000000     -2.038370000000000
H       0.893960000000000     -5.752570000000000      1.652650000000000
H       2.536930000000000     -5.078360000000000      1.979520000000000
H       1.385200000000000     -4.170830000000000      0.972150000000000

-C 0
6-31g(d,p)
****
-H 0
6-31g(d,p)
****
-Mg 0
6-31g(d,p)
****
-N 0
6-31+g(d,p)
****
-Na 0
6-31g(d,p)
****
-O 0
6-31+g(d,p)
****


