%chk=lowest10_c2_a1_speciation0_speciation3_speciationDFT133_rank07_E208.41.chk
%nprocshared=20
%mem=40GB
#p opt=loose PM7/gen scf=xqc 

lowest10_c2_a1_speciation0_speciation3_speciationDFT133_rank07_E208.41 DFT input

0 1
Na      0.224740000000000     -0.050010000000000      0.284040000000000
C      -2.217750000000000      1.428250000000000      1.584100000000000
C      -0.688340000000000      0.882950000000000      3.285420000000000
O      -1.121550000000000      0.623420000000000      1.967870000000000
C      -1.753860000000000      2.742940000000000      0.962890000000000
C      -1.405980000000000     -0.034920000000000      4.266850000000000
H      -2.784880000000000      0.868810000000000      0.811800000000000
H      -2.928410000000000      1.608330000000000      2.419080000000000
H       0.400770000000000      0.664090000000000      3.331900000000000
H      -0.800640000000000      1.951010000000000      3.575580000000000
H      -1.235320000000000     -1.097360000000000      3.989980000000000
H      -1.016230000000000      0.137540000000000      5.291190000000000
H      -2.496130000000000      0.169340000000000      4.257880000000000
H      -1.084960000000000      2.549010000000000      0.099050000000000
H      -2.638410000000000      3.310300000000000      0.604190000000000
H      -1.213690000000000      3.361360000000000      1.708030000000000
C       2.600090000000000     -1.735940000000000     -1.022690000000000
C       1.902300000000000     -2.734460000000000      0.977980000000000
O       1.906520000000000     -1.564160000000000      0.194020000000000
C       1.699490000000000     -2.325740000000000     -2.106660000000000
C       1.001520000000000     -2.495970000000000      2.185920000000000
H       2.910790000000000     -0.725270000000000     -1.362560000000000
H       3.535530000000000     -2.324460000000000     -0.899860000000000
H       1.489590000000000     -3.599190000000000      0.417490000000000
H       2.927610000000000     -2.959420000000000      1.342550000000000
H      -0.035180000000000     -2.268570000000000      1.856320000000000
H       0.979360000000000     -3.397070000000000      2.833430000000000
H       1.379560000000000     -1.636320000000000      2.779010000000000
H       0.784380000000000     -1.709400000000000     -2.223840000000000
H       2.244800000000000     -2.336250000000000     -3.073580000000000
H       1.407000000000000     -3.365580000000000     -1.858470000000000
C       2.447450000000000      2.113230000000000     -0.317820000000000
C       0.956900000000000      2.229070000000000     -2.131670000000000
O       1.315240000000000      1.548670000000000     -0.947830000000000
C       2.032000000000000      3.163940000000000      0.706840000000000
C       1.636790000000000      1.595580000000000     -3.339930000000000
H       2.974270000000000      1.296370000000000      0.220490000000000
H       3.180530000000000      2.530820000000000     -1.043350000000000
H      -0.141220000000000      2.127940000000000     -2.256540000000000
H       1.160690000000000      3.321810000000000     -2.081620000000000
H       1.381880000000000      0.516510000000000     -3.402300000000000
H       1.289550000000000      2.098320000000000     -4.266490000000000
H       2.738190000000000      1.701990000000000     -3.263720000000000
H       1.351980000000000      2.715880000000000      1.462440000000000
H       2.934110000000000      3.551080000000000      1.225840000000000
H       1.515730000000000      4.010320000000000      0.209080000000000
C      -1.959920000000000     -0.447860000000000     -2.342400000000000
C      -2.349240000000000     -1.771440000000000     -0.439270000000000
O      -1.545920000000000     -0.769270000000000     -1.030780000000000
C      -2.976880000000000      0.688830000000000     -2.328780000000000
C      -1.787850000000000     -3.160310000000000     -0.724290000000000
H      -1.063730000000000     -0.105140000000000     -2.900520000000000
H      -2.350680000000000     -1.327950000000000     -2.899140000000000
H      -2.329710000000000     -1.612360000000000      0.660230000000000
H      -3.417180000000000     -1.702240000000000     -0.743010000000000
H      -0.743060000000000     -3.230750000000000     -0.362750000000000
H      -2.397520000000000     -3.923000000000000     -0.196020000000000
H      -1.807380000000000     -3.375100000000000     -1.811830000000000
H      -2.555120000000000      1.578350000000000     -1.815470000000000
H      -3.232300000000000      0.968310000000000     -3.372300000000000
H      -3.903210000000000      0.376140000000000     -1.805230000000000
Na     -5.291350000000000    -16.528130000000001     -7.677950000000000
C      -2.221520000000000    -14.867580000000000     -7.238400000000000
C      -3.379090000000000    -14.868190000000000     -5.240160000000000
O      -3.402630000000000    -15.277640000000000     -6.588030000000000
C      -2.291000000000000    -15.323190000000000     -8.689019999999999
C      -4.668600000000000    -15.326770000000000     -4.575070000000000
H      -2.127090000000000    -13.757660000000000     -7.230400000000000
H      -1.327010000000000    -15.339140000000000     -6.771400000000000
H      -2.525360000000000    -15.334840000000000     -4.697520000000000
H      -3.334500000000000    -13.759130000000001     -5.165450000000000
H      -4.752900000000000    -16.433080000000000     -4.632800000000000
H      -4.677950000000000    -15.018750000000001     -3.508580000000000
H      -5.542170000000000    -14.872040000000000     -5.089700000000000
H      -3.173110000000000    -14.867110000000000     -9.187720000000001
H      -1.371780000000000    -15.016610000000000     -9.230449999999999
H      -2.385230000000000    -16.429440000000000     -8.734640000000001
Mg      2.874550000000000    -12.213540000000000     -4.626860000000000
C       2.037020000000000    -13.984380000000000     -2.322980000000000
C      -0.038100000000000    -13.104990000000001     -3.013560000000000
O       1.358170000000000    -13.065670000000001     -3.145010000000000
C       2.371710000000000    -15.252540000000000     -3.088550000000000
C      -0.628940000000000    -12.403460000000001     -4.228770000000000
H       2.988100000000000    -13.508039999999999     -2.006000000000000
H       1.488440000000000    -14.229200000000001     -1.404590000000000
H      -0.433820000000000    -14.143969999999999     -2.978260000000000
H      -0.338570000000000    -12.540670000000000     -2.113310000000000
H      -0.382990000000000    -12.970260000000000     -5.150220000000000
H      -1.728940000000000    -12.318379999999999     -4.127090000000000
H      -0.199410000000000    -11.385320000000000     -4.331100000000000
H       2.995810000000000    -15.007860000000001     -3.974020000000000
H       2.940030000000000    -15.939850000000000     -2.426270000000000
H       1.439570000000000    -15.754650000000000     -3.418260000000000
H       2.015770000000000    -13.367220000000000     -6.956800000000000
C       2.933610000000000    -11.599360000000001     -7.893900000000000
C       1.982850000000000    -12.258830000000000     -6.914080000000000
C       4.379890000000000    -12.065920000000000     -7.683690000000000
H       2.598590000000000    -11.857920000000000     -8.916710000000000
H       2.875200000000000    -10.498170000000000     -7.757560000000000
H       4.734050000000000    -11.787509999999999     -6.674860000000000
H       4.443910000000000    -13.170790000000000     -7.782590000000000
C       5.304950000000000    -11.417070000000001     -8.705200000000000
H       0.948940000000000    -11.872030000000001     -7.004700000000000
H       4.979610000000000    -11.688260000000000     -9.731299999999999
H       5.285330000000000    -10.311600000000000     -8.592860000000000
H       6.345640000000000    -11.772660000000000     -8.552160000000001
C       5.765880000000000    -13.122769999999999     -4.554780000000000
C       6.989430000000000    -12.728199999999999     -4.060700000000000
C       6.771260000000000    -11.562630000000000     -3.344780000000000
C       5.423200000000000    -11.291900000000000     -3.444740000000000
N       4.834130000000000    -12.233079999999999     -4.186280000000000
C       4.686250000000000    -10.143450000000000     -2.819130000000000
N       3.328530000000000     -9.984090000000000     -3.378390000000000
C       3.143120000000000     -8.816450000000000     -4.269480000000000
H       7.931160000000000    -13.235540000000000     -4.210890000000000
H       5.561700000000000    -13.998939999999999     -5.158460000000000
H       7.511990000000000    -10.973490000000000     -2.824800000000000
H       4.597590000000000    -10.365270000000001     -1.752050000000000
H       5.289100000000000     -9.221819999999999     -2.875290000000000
C       4.213630000000000     -8.787929999999999     -5.375660000000000
C       1.770590000000000     -8.928410000000000     -4.961780000000000
C       3.159850000000000     -7.513420000000000     -3.446000000000000
H       4.172880000000000     -9.734330000000000     -5.942360000000000
H       4.035170000000000     -7.944670000000000     -6.073250000000000
H       5.237970000000000     -8.675750000000001     -4.973490000000000
H       0.948770000000000     -8.918970000000000     -4.234120000000000
H       1.602940000000000     -8.069440000000000     -5.647930000000000
H       1.690930000000000     -9.864369999999999     -5.547900000000000
H       2.373960000000000     -7.543290000000000     -2.661880000000000
H       4.133390000000000     -7.354010000000000     -2.945960000000000
H       2.969630000000000     -6.634810000000000     -4.096550000000000
Mg      1.723460000000000    -10.383599999999999     -1.272330000000000
C       1.787090000000000     -8.173410000000001      0.886900000000000
C       3.952980000000000     -7.764730000000000     -0.008650000000000
O       2.776830000000000     -8.547250000000000     -0.050720000000000
C       1.100510000000000     -6.857630000000000      0.536880000000000
C       4.667390000000000     -7.778950000000000      1.341260000000000
H       1.029320000000000     -8.977119999999999      0.873040000000000
H       2.157150000000000     -8.174390000000001      1.928560000000000
H       4.656720000000000     -8.229509999999999     -0.726710000000000
H       3.768780000000000     -6.735870000000000     -0.379140000000000
H       4.817710000000000     -8.823180000000001      1.686990000000000
H       5.655840000000000     -7.289330000000000      1.231590000000000
H       4.093460000000000     -7.210240000000000      2.098730000000000
H       0.690700000000000     -6.884950000000000     -0.489640000000000
H       0.264220000000000     -6.685260000000000      1.246040000000000
H       1.814180000000000     -6.016680000000000      0.616440000000000
H       0.212680000000000     -8.298819999999999     -2.130370000000000
C      -1.351140000000000     -9.180070000000001     -0.934530000000000
C      -0.158850000000000     -9.312630000000000     -1.888890000000000
C      -2.380340000000000     -8.136710000000001     -1.402040000000000
H      -1.856610000000000    -10.159070000000000     -0.817960000000000
H      -0.992790000000000     -8.845530000000000      0.054710000000000
H      -3.185210000000000     -8.084650000000000     -0.637370000000000
H      -1.898040000000000     -7.135920000000000     -1.460770000000000
C      -3.019550000000000     -8.462899999999999     -2.750600000000000
H      -0.523690000000000     -9.769240000000000     -2.824800000000000
H      -2.263290000000000     -8.453180000000000     -3.562460000000000
H      -3.513220000000000     -9.456390000000001     -2.713240000000000
H      -3.782970000000000     -7.691800000000000     -2.987660000000000
C      -0.761820000000000    -15.312830000000000      0.763940000000000
C      -0.953140000000000    -14.964020000000000      2.087870000000000
C      -0.596680000000000    -13.633850000000001      2.211140000000000
C      -0.206780000000000    -13.251530000000001      1.009720000000000
N      -0.327210000000000    -14.308750000000000      0.098820000000000
C       0.304870000000000    -11.900190000000000      0.647970000000000
N       1.664310000000000    -11.959759999999999      0.106080000000000
C       2.790930000000000    -12.238650000000000      1.059070000000000
H      -1.298540000000000    -15.613080000000000      2.878980000000000
H      -0.935350000000000    -16.278960000000001      0.316790000000000
H      -0.604790000000000    -13.023910000000001      3.101920000000000
H       0.227760000000000    -11.164230000000000      1.471340000000000
H      -0.349880000000000    -11.534630000000000     -0.147970000000000
C       2.934860000000000    -13.759670000000000      1.267340000000000
C       4.124240000000000    -11.752879999999999      0.468740000000000
C       2.615550000000000    -11.546650000000000      2.430610000000000
H       3.121660000000000    -14.268430000000000      0.299680000000000
H       3.793260000000000    -13.986260000000000      1.934820000000000
H       2.041130000000000    -14.206310000000000      1.731590000000000
H       4.114600000000000    -10.657130000000000      0.346790000000000
H       4.969570000000000    -11.991830000000000      1.154530000000000
H       4.338660000000000    -12.244930000000000     -0.501640000000000
H       2.560820000000000    -10.448100000000000      2.311300000000000
H       1.708790000000000    -11.903050000000000      2.957360000000000
H       3.477850000000000    -11.773199999999999      3.094510000000000

-C 0
6-31g(d,p)
****
-H 0
6-31g(d,p)
****
-Mg 0
6-31g(d,p)
****
-N 0
6-31+g(d,p)
****
-Na 0
6-31g(d,p)
****
-O 0
6-31+g(d,p)
****


