%chk=lowest10_c2_a1_speciation3_speciation3_speciationDFT45_rank08_E217.64.chk
%nprocshared=20
%mem=40GB
#p opt=loose PM7/gen scf=xqc 

lowest10_c2_a1_speciation3_speciation3_speciationDFT45_rank08_E217.64 DFT input

0 1
Na      0.144960000000000     -0.276630000000000      0.199830000000000
C       2.492690000000000      0.254350000000000     -1.813240000000000
C       3.201030000000000     -1.356620000000000     -0.253380000000000
O       2.277020000000000     -0.331020000000000     -0.545400000000000
C       1.721840000000000     -0.482120000000000     -2.905330000000000
C       4.409420000000000     -0.784730000000000      0.476780000000000
H       2.108050000000000      1.294090000000000     -1.767710000000000
H       3.571110000000000      0.335010000000000     -2.068660000000000
H       2.696340000000000     -2.084440000000000      0.418750000000000
H       3.508930000000000     -1.931670000000000     -1.154580000000000
H       4.083670000000000     -0.261820000000000      1.401440000000000
H       5.101510000000000     -1.606870000000000      0.752420000000000
H       4.946900000000000     -0.065120000000000     -0.174020000000000
H       0.639450000000000     -0.512120000000000     -2.662810000000000
H       1.853220000000000      0.052340000000000     -3.869720000000000
H       2.096500000000000     -1.519390000000000     -3.020210000000000
C      -2.175740000000000     -0.649520000000000      2.362920000000000
C      -0.093940000000000     -0.494080000000000      3.425440000000000
O      -0.775340000000000     -0.740620000000000      2.217230000000000
C      -2.664860000000000      0.789470000000000      2.210730000000000
C       1.402460000000000     -0.460240000000000      3.129960000000000
H      -2.626430000000000     -1.243410000000000      1.539660000000000
H      -2.534630000000000     -1.106500000000000      3.310100000000000
H      -0.373100000000000      0.489610000000000      3.859970000000000
H      -0.290360000000000     -1.310430000000000      4.153320000000000
H       1.634930000000000      0.347060000000000      2.402370000000000
H       1.974820000000000     -0.274210000000000      4.062410000000000
H       1.727000000000000     -1.430020000000000      2.696690000000000
H      -2.309530000000000      1.217360000000000      1.250720000000000
H      -3.774880000000000      0.804300000000000      2.215960000000000
H      -2.302320000000000      1.422380000000000      3.045150000000000
C      -1.490880000000000     -2.766080000000000     -0.860110000000000
C      -2.315040000000000     -0.920140000000000     -2.059550000000000
O      -1.469890000000000     -1.361710000000000     -1.018550000000000
C      -0.395150000000000     -3.422600000000000     -1.693570000000000
C      -3.701110000000000     -0.589340000000000     -1.518840000000000
H      -1.288810000000000     -2.986420000000000      0.210010000000000
H      -2.485630000000000     -3.210670000000000     -1.086250000000000
H      -1.873500000000000      0.007810000000000     -2.478970000000000
H      -2.373850000000000     -1.641120000000000     -2.905080000000000
H      -3.626920000000000      0.168690000000000     -0.710660000000000
H      -4.329670000000000     -0.178940000000000     -2.336340000000000
H      -4.185970000000000     -1.501300000000000     -1.114470000000000
H       0.598860000000000     -3.014870000000000     -1.410720000000000
H      -0.396340000000000     -4.517500000000000     -1.508840000000000
H      -0.567460000000000     -3.242330000000000     -2.774590000000000
C      -1.038100000000000      2.700050000000000     -1.058370000000000
C       0.805080000000000      2.829330000000000      0.393930000000000
O      -0.109060000000000      1.981850000000000     -0.273500000000000
C      -0.517820000000000      2.888200000000000     -2.479570000000000
C       0.277470000000000      3.225590000000000      1.768160000000000
H      -1.969900000000000      2.098760000000000     -1.106200000000000
H      -1.324200000000000      3.674540000000000     -0.604610000000000
H       1.747650000000000      2.259360000000000      0.539500000000000
H       1.075510000000000      3.727650000000000     -0.203970000000000
H       0.068230000000000      2.320160000000000      2.371310000000000
H       1.039900000000000      3.835370000000000      2.296600000000000
H      -0.654760000000000      3.818380000000000      1.673880000000000
H      -0.284490000000000      1.904540000000000     -2.938390000000000
H      -1.293600000000000      3.392140000000000     -3.093080000000000
H       0.399080000000000      3.512140000000000     -2.478890000000000
Na     -0.217510000000000    -15.484290000000000      4.405370000000000
C       0.825500000000000    -12.770700000000000      5.663980000000000
C       2.441410000000000    -13.590299999999999      4.168090000000000
O       1.315930000000000    -13.895270000000000      4.963320000000000
C      -0.208340000000000    -12.013439999999999      4.835570000000000
C       3.719890000000000    -13.852690000000001      4.951790000000000
H       0.324140000000000    -13.144010000000000      6.581030000000000
H       1.637540000000000    -12.093959999999999      6.009320000000000
H       2.424080000000000    -14.263489999999999      3.283530000000000
H       2.423330000000000    -12.552450000000000      3.766150000000000
H       3.741190000000000    -14.907930000000000      5.298810000000000
H       4.600690000000000    -13.667350000000001      4.303090000000000
H       3.772750000000000    -13.181400000000000      5.833440000000000
H      -1.033640000000000    -12.692819999999999      4.537660000000000
H      -0.630670000000000    -11.184279999999999      5.441310000000000
H       0.256420000000000    -11.587130000000000      3.923340000000000
C      -1.229510000000000    -18.351669999999999      3.315730000000000
C       1.035860000000000    -18.442170000000001      3.891070000000000
O      -0.056780000000000    -17.610340000000001      3.574380000000000
C      -1.994760000000000    -18.653150000000000      4.602600000000000
C       2.203010000000000    -17.559010000000001      4.318190000000000
H      -1.881740000000000    -17.717610000000001      2.678430000000000
H      -1.029290000000000    -19.277580000000000      2.732160000000000
H       0.801850000000000    -19.120799999999999      4.739360000000000
H       1.346520000000000    -19.027790000000000      2.998970000000000
H       1.925060000000000    -16.956389999999999      5.209560000000000
H       3.083160000000000    -18.185810000000000      4.571810000000000
H       2.478760000000000    -16.867039999999999      3.494320000000000
H      -2.202280000000000    -17.712969999999999      5.154010000000000
H      -2.960550000000000    -19.139920000000000      4.352790000000000
H      -1.417550000000000    -19.336459999999999      5.257220000000000
C      -1.692030000000000    -14.786500000000000      1.677630000000000
C      -3.293090000000000    -14.390129999999999      3.346330000000000
O      -2.007310000000000    -14.892340000000001      3.051770000000000
C      -0.977620000000000    -13.470990000000000      1.387670000000000
C      -4.325640000000000    -15.508070000000000      3.291960000000000
H      -1.003070000000000    -15.620300000000000      1.425170000000000
H      -2.581520000000000    -14.909170000000000      1.018960000000000
H      -3.270380000000000    -13.978429999999999      4.376730000000000
H      -3.584820000000000    -13.547560000000001      2.686320000000000
H      -4.040760000000000    -16.322070000000000      3.991170000000000
H      -5.319420000000000    -15.111110000000000      3.586490000000000
H      -4.392320000000000    -15.921329999999999      2.264540000000000
H      -0.060010000000000    -13.391060000000000      2.008350000000000
H      -0.688720000000000    -13.435100000000000      0.316210000000000
H      -1.642270000000000    -12.609980000000000      1.607880000000000
C      -2.402730000000000    -15.383630000000000      7.116900000000000
C      -0.168670000000000    -15.930899999999999      7.583740000000000
O      -1.105950000000000    -15.570380000000000      6.588090000000000
C      -2.615520000000000    -13.928730000000000      7.519310000000000
C      -0.087120000000000    -17.446040000000000      7.725380000000000
H      -3.130900000000000    -15.636220000000000      6.318060000000000
H      -2.627530000000000    -16.068490000000001      7.965190000000000
H       0.827070000000000    -15.558680000000001      7.261220000000000
H      -0.374700000000000    -15.450650000000000      8.566620000000000
H       0.172570000000000    -17.904109999999999      6.750390000000000
H       0.698940000000000    -17.708620000000000      8.463850000000001
H      -1.056990000000000    -17.858889999999999      8.070200000000000
H      -2.435930000000000    -13.260770000000001      6.651050000000000
H      -3.660140000000000    -13.790080000000000      7.867870000000000
H      -1.923550000000000    -13.648000000000000      8.339610000000000
Mg     -6.533400000000000     -9.419660000000000      3.703860000000000
H      -4.923690000000000    -11.827080000000000      2.075710000000000
C      -7.098410000000000    -11.905559999999999      1.788990000000000
C      -5.861030000000000    -11.596810000000000      2.615610000000000
C      -7.070270000000000    -11.131560000000000      0.469100000000000
H      -7.128800000000000    -12.997210000000001      1.591140000000000
H      -8.000890000000000    -11.616960000000001      2.371000000000000
H      -7.045120000000000    -10.041919999999999      0.674510000000000
H      -6.158600000000000    -11.406790000000001     -0.103670000000000
C      -8.298299999999999    -11.443239999999999     -0.378920000000000
H      -5.900290000000000    -12.107110000000000      3.601310000000000
H      -8.346660000000000    -12.531570000000000     -0.595130000000000
H      -9.224010000000000    -11.133240000000001      0.150990000000000
H      -8.236310000000000    -10.891130000000000     -1.340360000000000
C      -9.184830000000000     -8.703220000000000      2.208870000000000
C      -9.748939999999999     -7.709930000000000      1.426820000000000
C      -8.808859999999999     -6.703210000000000      1.331170000000000
C      -7.721660000000000     -7.128310000000000      2.058910000000000
N      -7.952970000000000     -8.340600000000000      2.592820000000000
C      -6.442700000000000     -6.425620000000000      2.275780000000000
N      -5.349960000000000     -7.392320000000000      2.113880000000000
C      -4.594530000000000     -7.374580000000000      0.859690000000000
H     -10.728540000000001     -7.723880000000000      0.971790000000000
H      -9.647489999999999     -9.648700000000000      2.463370000000000
H      -8.908970000000000     -5.766510000000000      0.795170000000000
H      -6.469910000000000     -6.132630000000000      3.334180000000000
H      -6.332480000000000     -5.490780000000000      1.687930000000000
C      -3.585090000000000     -6.213300000000000      0.891110000000000
C      -3.831320000000000     -8.707030000000000      0.780700000000000
C      -5.522190000000000     -7.277950000000000     -0.365360000000000
H      -2.902410000000000     -6.318760000000000      1.764370000000000
H      -2.973120000000000     -6.201130000000000     -0.034810000000000
H      -4.103400000000000     -5.236880000000000      0.980530000000000
H      -4.539530000000000     -9.561730000000001      0.786200000000000
H      -3.210390000000000     -8.761270000000000     -0.136970000000000
H      -3.164080000000000     -8.832660000000001      1.650600000000000
H      -6.264820000000000     -8.102020000000000     -0.343290000000000
H      -6.070170000000000     -6.315280000000000     -0.389910000000000
H      -4.932610000000000     -7.357800000000000     -1.301160000000000
Mg     -4.587030000000000     -6.753050000000000      4.364760000000000
H      -3.877710000000000     -4.513470000000000      5.907870000000000
C      -4.761230000000000     -3.678800000000000      4.074010000000000
C      -3.938440000000000     -4.733440000000000      4.823500000000000
C      -6.149260000000000     -3.477400000000000      4.691610000000000
H      -4.222800000000000     -2.709280000000000      4.121100000000000
H      -4.844910000000000     -3.977900000000000      3.006680000000000
H      -6.723660000000000     -4.416590000000000      4.689130000000000
H      -6.030060000000000     -3.138990000000000      5.743120000000000
C      -6.959010000000000     -2.436930000000000      3.923040000000000
H      -2.910270000000000     -4.723640000000000      4.401130000000000
H      -6.425630000000000     -1.463250000000000      3.904220000000000
H      -7.136740000000000     -2.779280000000000      2.880810000000000
H      -7.942390000000000     -2.294650000000000      4.420070000000000
C      -1.391070000000000     -7.276810000000000      6.421220000000000
C      -1.135210000000000     -7.470760000000000      5.082990000000000
C      -2.127470000000000     -8.295019999999999      4.592650000000000
C      -2.970670000000000     -8.580349999999999      5.586350000000000
N      -2.560430000000000     -7.964180000000000      6.786650000000000
C      -4.226270000000000     -9.396940000000001      5.439120000000000
N      -5.385110000000000     -8.507930000000000      5.211800000000000
C      -6.329280000000000     -8.337910000000001      6.333990000000000
H      -0.313570000000000     -7.043500000000000      4.523140000000000
H      -0.794760000000000     -6.676500000000000      7.093290000000000
H      -2.220390000000000     -8.620189999999999      3.572610000000000
H      -4.334880000000000    -10.103980000000000      6.285970000000000
H      -4.113510000000000    -10.028119999999999      4.531860000000000
C      -5.624980000000000     -7.835750000000000      7.605100000000000
C      -7.371620000000000     -7.295950000000000      5.913950000000000
C      -7.073260000000000     -9.667389999999999      6.611520000000000
H      -5.097020000000000     -6.880340000000000      7.398070000000000
H      -6.370950000000000     -7.661260000000000      8.409640000000000
H      -4.894750000000000     -8.578810000000001      7.983570000000000
H      -7.901540000000000     -7.612650000000000      4.995960000000000
H      -8.132090000000000     -7.145560000000000      6.707960000000000
H      -6.872680000000000     -6.331340000000000      5.719560000000000
H      -7.617210000000000    -10.014189999999999      5.706570000000000
H      -6.388020000000000    -10.480090000000001      6.921630000000000
H      -7.822280000000000     -9.534250000000000      7.419170000000000

-C 0
6-31g(d,p)
****
-H 0
6-31g(d,p)
****
-Mg 0
6-31g(d,p)
****
-N 0
6-31+g(d,p)
****
-Na 0
6-31g(d,p)
****
-O 0
6-31+g(d,p)
****


