%chk=lowest10_c2_a1_speciation0_speciation0_speciationDFT133_rank08_E170.65.chk
%nprocshared=20
%mem=40GB
#p opt=loose PM7/gen scf=xqc 

lowest10_c2_a1_speciation0_speciation0_speciationDFT133_rank08_E170.65 DFT input

0 1
Na      0.000070000000000      2.184120000000000     -0.001230000000000
C      -1.158670000000000     -1.042360000000000     -0.001380000000000
C       1.158350000000000     -1.040340000000000     -0.000740000000000
O      -0.000600000000000     -0.239340000000000      0.000080000000000
C      -2.374790000000000     -0.123210000000000      0.001420000000000
C       2.374570000000000     -0.121850000000000      0.000530000000000
H      -1.204450000000000     -1.672500000000000     -0.918450000000000
H      -1.203970000000000     -1.677880000000000      0.912160000000000
H       1.204240000000000     -1.670960000000000      0.915210000000000
H       1.204260000000000     -1.671830000000000     -0.916820000000000
H       2.362180000000000      0.524550000000000      0.904470000000000
H       3.309800000000000     -0.719980000000000      0.000320000000000
H       2.362960000000000      0.526860000000000     -0.901690000000000
H      -2.362620000000000      0.526890000000000     -0.899930000000000
H      -3.310640000000000     -0.720160000000000      0.000260000000000
H      -2.361980000000000      0.522450000000000      0.905930000000000
Na     -8.015810000000000    -14.561320000000000      3.168880000000000
C      -5.618770000000000    -13.734400000000001      0.730640000000000
C      -5.044660000000000    -12.734800000000000      2.731670000000000
O      -5.980850000000000    -13.563179999999999      2.081840000000000
C      -6.656900000000000    -14.627599999999999      0.066410000000000
C      -5.470800000000000    -12.573210000000000      4.183480000000000
H      -5.610320000000000    -12.758430000000001      0.193690000000000
H      -4.627720000000000    -14.235609999999999      0.645710000000000
H      -4.029990000000000    -13.194540000000000      2.718370000000000
H      -5.024970000000000    -11.723220000000000      2.269160000000000
H      -5.507040000000000    -13.565840000000000      4.681210000000000
H      -4.749040000000000    -11.924650000000000      4.722730000000000
H      -6.479310000000000    -12.109209999999999      4.232340000000000
H      -7.660390000000000    -14.154600000000000      0.130180000000000
H      -6.399040000000000    -14.784350000000000     -1.001780000000000
H      -6.691730000000000    -15.613350000000001      0.578130000000000
Mg     -0.316780000000000    -11.802989999999999     -2.096380000000000
C       0.801760000000000    -12.375209999999999      0.654340000000000
C      -1.210010000000000    -11.269590000000001      1.189780000000000
O      -0.310110000000000    -11.652139999999999      0.183690000000000
C       0.577930000000000    -13.870100000000001      0.507600000000000
C      -2.521760000000000    -10.901389999999999      0.510270000000000
H       1.673130000000000    -12.090750000000000      0.028460000000000
H       1.068010000000000    -12.131340000000000      1.690670000000000
H      -1.406790000000000    -12.086399999999999      1.918760000000000
H      -0.826730000000000    -10.370340000000001      1.703240000000000
H      -2.958540000000000    -11.795660000000000      0.020040000000000
H      -3.238760000000000    -10.496270000000001      1.251450000000000
H      -2.346590000000000    -10.135529999999999     -0.273540000000000
H       0.388480000000000    -14.122840000000000     -0.557130000000000
H       1.485890000000000    -14.410800000000000      0.850010000000000
H      -0.287370000000000    -14.187189999999999      1.124390000000000
H      -2.491760000000000    -13.417690000000000     -2.495250000000000
C      -2.596530000000000    -12.396520000000001     -4.442590000000000
C      -2.549610000000000    -12.397110000000000     -2.927110000000000
C      -1.392580000000000    -13.129260000000000     -5.048560000000000
H      -3.535790000000000    -12.893620000000000     -4.752300000000000
H      -2.606600000000000    -11.343220000000001     -4.796270000000000
H      -0.450630000000000    -12.624260000000000     -4.768620000000000
H      -1.352110000000000    -14.174410000000000     -4.673540000000000
C      -1.486360000000000    -13.145780000000000     -6.568810000000000
H      -3.371630000000000    -11.804729999999999     -2.479700000000000
H      -2.420300000000000    -13.657959999999999     -6.881400000000000
H      -1.485850000000000    -12.107279999999999     -6.964530000000000
H      -0.617640000000000    -13.690280000000000     -6.995140000000000
C       1.845120000000000    -13.367110000000000     -3.535630000000000
C       3.039160000000000    -13.167600000000000     -4.192380000000000
C       3.317190000000000    -11.813250000000000     -4.107910000000000
C       2.271670000000000    -11.244770000000001     -3.412010000000000
N       1.387940000000000    -12.190790000000000     -3.085340000000000
C       2.118070000000000     -9.798730000000001     -3.039620000000000
N       0.750730000000000     -9.486890000000001     -2.576290000000000
C      -0.072590000000000     -8.695480000000000     -3.518400000000000
H       3.634030000000000    -13.927110000000001     -4.678250000000000
H       1.328110000000000    -14.309630000000000     -3.400930000000000
H       4.174270000000000    -11.300960000000000     -4.519120000000000
H       2.814510000000000     -9.605340000000000     -2.219070000000000
H       2.454500000000000     -9.149960000000000     -3.865390000000000
C      -0.086070000000000     -9.337990000000000     -4.917470000000000
C      -1.527800000000000     -8.669490000000000     -3.011100000000000
C       0.440010000000000     -7.243080000000000     -3.578800000000000
H      -0.456750000000000    -10.374480000000000     -4.835470000000000
H      -0.750180000000000     -8.773130000000000     -5.602660000000000
H       0.918200000000000     -9.371100000000000     -5.380020000000000
H      -1.604270000000000     -8.189970000000001     -2.026610000000000
H      -2.177100000000000     -8.089460000000001     -3.703010000000000
H      -1.940440000000000     -9.692890000000000     -2.920410000000000
H       0.430870000000000     -6.789070000000000     -2.565310000000000
H       1.473840000000000     -7.186330000000000     -3.967660000000000
H      -0.201670000000000     -6.627210000000000     -4.242340000000000
Mg      1.104640000000000     -8.689220000000001     -0.044450000000000
C       2.533430000000000     -5.972330000000000      0.306180000000000
C       3.425160000000000     -6.491620000000000     -1.837020000000000
O       2.603690000000000     -6.896710000000000     -0.760860000000000
C       1.722550000000000     -4.727300000000000     -0.035130000000000
C       4.879180000000000     -6.227730000000000     -1.450980000000000
H       2.030820000000000     -6.498160000000000      1.137620000000000
H       3.525650000000000     -5.710980000000000      0.717540000000000
H       3.450790000000000     -7.345670000000000     -2.541830000000000
H       2.974850000000000     -5.645100000000000     -2.394010000000000
H       5.288750000000000     -7.087450000000000     -0.880360000000000
H       5.477820000000000     -6.088690000000000     -2.373510000000000
H       4.967400000000000     -5.301020000000000     -0.850930000000000
H       0.713890000000000     -4.997260000000000     -0.398360000000000
H       1.613340000000000     -4.109400000000000      0.879680000000000
H       2.235460000000000     -4.128710000000000     -0.811890000000000
H      -0.692420000000000     -6.707810000000000     -0.502200000000000
C      -0.917690000000000     -6.669210000000000      1.642580000000000
C      -0.729050000000000     -7.436920000000000      0.329140000000000
C      -2.038100000000000     -5.617790000000000      1.567090000000000
H      -1.139260000000000     -7.374650000000000      2.467690000000000
H       0.010380000000000     -6.121700000000000      1.883150000000000
H      -2.079110000000000     -5.091670000000000      2.545210000000000
H      -1.793770000000000     -4.866440000000000      0.783850000000000
C      -3.417990000000000     -6.207360000000000      1.280660000000000
H      -1.617270000000000     -8.074140000000000      0.178970000000000
H      -3.448220000000000     -6.681320000000000      0.277850000000000
H      -3.685720000000000     -6.956470000000000      2.054810000000000
H      -4.172260000000000     -5.392200000000000      1.294440000000000
C       1.046080000000000    -11.755470000000001      4.976700000000000
C       1.816110000000000    -10.932660000000000      5.777550000000000
C       2.078960000000000     -9.788610000000000      5.047040000000000
C       1.493740000000000     -9.964300000000000      3.877340000000000
N       0.831880000000000    -11.198470000000000      3.844160000000000
C       1.526490000000000     -9.010479999999999      2.733820000000000
N       2.118700000000000     -9.614160000000000      1.537940000000000
C       3.603920000000000     -9.835839999999999      1.522550000000000
H       2.161390000000000    -11.150660000000000      6.777340000000000
H       0.665700000000000    -12.733010000000000      5.228420000000000
H       2.661170000000000     -8.929560000000000      5.344940000000000
H       2.005060000000000     -8.043010000000001      2.979830000000000
H       0.482110000000000     -8.782349999999999      2.503320000000000
C       3.940370000000000    -11.170360000000001      2.217860000000000
C       4.111990000000000     -9.958830000000001      0.077250000000000
C       4.398670000000000     -8.692069999999999      2.194040000000000
H       3.425760000000000    -12.012630000000000      1.712030000000000
H       5.031790000000000    -11.372199999999999      2.175590000000000
H       3.654800000000000    -11.173080000000001      3.281910000000000
H       3.956260000000000     -9.012829999999999     -0.467210000000000
H       5.207630000000000    -10.161960000000001      0.060270000000000
H       3.614170000000000    -10.794370000000001     -0.455450000000000
H       4.212510000000000     -7.730590000000000      1.679350000000000
H       4.142310000000000     -8.588509999999999      3.266530000000000
H       5.490350000000000     -8.896160000000000      2.146980000000000

-C 0
6-31g(d,p)
****
-H 0
6-31g(d,p)
****
-Mg 0
6-31g(d,p)
****
-N 0
6-31+g(d,p)
****
-Na 0
6-31g(d,p)
****
-O 0
6-31+g(d,p)
****


