%chk=lowest10_c2_a1_speciation0_speciation0_speciationDFT45_rank07_E145.07.chk
%nprocshared=20
%mem=40GB
#p opt=loose PM7/gen scf=xqc 

lowest10_c2_a1_speciation0_speciation0_speciationDFT45_rank07_E145.07 DFT input

0 1
Na     -1.824260000000000     -0.975950000000000     -0.001430000000000
C       1.549160000000000     -0.364920000000000     -0.001300000000000
C       0.390300000000000      1.642070000000000     -0.001010000000000
O       0.275290000000000      0.237650000000000      0.001180000000000
C       1.360510000000000     -1.877160000000000      0.000490000000000
C      -1.013710000000000      2.235660000000000      0.001010000000000
H       2.117470000000000     -0.089740000000000     -0.918610000000000
H       2.122090000000000     -0.087620000000000      0.912470000000000
H       0.916830000000000      1.999250000000000      0.912950000000000
H       0.913110000000000      1.996870000000000     -0.918050000000000
H      -1.566820000000000      1.901850000000000      0.905280000000000
H      -0.964140000000000      3.344650000000000      0.000200000000000
H      -1.569930000000000      1.900650000000000     -0.900900000000000
H       0.791530000000000     -2.188560000000000     -0.901500000000000
H       2.344550000000000     -2.390970000000000     -0.000900000000000
H       0.794610000000000     -2.188460000000000      0.904610000000000
Na    -10.210030000000000    -13.012230000000001     -2.890110000000000
C      -6.752830000000000    -12.350250000000001     -2.890880000000000
C      -7.907460000000000    -10.350610000000000     -2.891410000000000
O      -8.029680000000001    -11.754460000000000     -2.891390000000000
C      -6.928260000000000    -13.861870000000000     -2.889580000000000
C      -9.305090000000000     -9.747600000000000     -2.888570000000000
H      -6.183490000000000    -12.070230000000000     -3.806190000000000
H      -6.185550000000000    -12.070430000000000     -1.974700000000000
H      -7.378520000000000     -9.997629999999999     -1.976890000000000
H      -7.381710000000000     -9.997900000000000     -3.807840000000000
H      -9.858770000000000    -10.077880000000000     -1.983510000000000
H      -9.242970000000000     -8.639320000000000     -2.888900000000000
H      -9.862539999999999    -10.078320000000000     -3.791100000000000
H      -7.492870000000000    -14.178910000000000     -3.792530000000000
H      -5.936730000000000    -14.360910000000001     -2.889770000000000
H      -7.491350000000000    -14.177049999999999     -1.984910000000000
Mg     -1.130150000000000     -8.462669999999999     -2.355360000000000
H      -1.769510000000000     -5.174780000000000     -2.332630000000000
C      -1.255260000000000     -5.988170000000000     -0.353700000000000
C      -1.851490000000000     -6.112200000000000     -1.747910000000000
C       0.226080000000000     -5.612390000000000     -0.429610000000000
H      -1.819030000000000     -5.211340000000000      0.203430000000000
H      -1.363180000000000     -6.961450000000000      0.173410000000000
H       0.784320000000000     -6.399340000000000     -0.976390000000000
H       0.337610000000000     -4.653050000000000     -0.977080000000000
C       0.828600000000000     -5.460420000000000      0.963080000000000
H      -2.904260000000000     -6.461900000000000     -1.699390000000000
H       0.281720000000000     -4.679630000000000      1.532800000000000
H       0.774210000000000     -6.421970000000000      1.516540000000000
H       1.893700000000000     -5.158280000000000      0.877120000000000
C       0.834570000000000     -9.200340000000001     -0.034340000000000
C       2.147050000000000     -9.579120000000000      0.189590000000000
C       2.740890000000000     -9.695050000000000     -1.051430000000000
C       1.764060000000000     -9.384800000000000     -1.969380000000000
N       0.608150000000000     -9.087780000000000     -1.351370000000000
C       1.878360000000000     -9.353350000000001     -3.440060000000000
N       1.205590000000000     -8.144159999999999     -3.930270000000000
C       2.037080000000000     -7.004310000000000     -4.321780000000000
H       2.618080000000000     -9.742170000000000      1.148170000000000
H       0.094190000000000     -8.998680000000000      0.729310000000000
H       3.766200000000000     -9.977180000000001     -1.259850000000000
H       1.290080000000000    -10.217960000000000     -3.776300000000000
H       2.910600000000000     -9.502150000000000     -3.819190000000000
C       2.627810000000000     -7.263240000000000     -5.718570000000000
C       1.112040000000000     -5.777900000000000     -4.383390000000000
C       3.143310000000000     -6.721390000000000     -3.288930000000000
H       1.812450000000000     -7.432200000000000     -6.457790000000000
H       3.233000000000000     -6.395450000000000     -6.053970000000000
H       3.276580000000000     -8.162699999999999     -5.716140000000000
H       0.649850000000000     -5.589050000000000     -3.392090000000000
H       1.666910000000000     -4.870950000000000     -4.699940000000000
H       0.288900000000000     -5.939390000000000     -5.100110000000000
H       2.694980000000000     -6.578060000000000     -2.284300000000000
H       3.872090000000000     -7.553890000000000     -3.230150000000000
H       3.698880000000000     -5.801610000000000     -3.563000000000000
Mg     -0.154160000000000     -9.609389999999999     -5.365910000000000
H       0.065820000000000    -11.626350000000000     -7.310260000000000
C       2.100780000000000    -11.390219999999999     -6.507530000000000
C       0.734180000000000    -10.832120000000000     -6.922560000000000
C       1.976430000000000    -12.558180000000000     -5.522850000000000
H       2.624330000000000    -11.760040000000000     -7.414890000000000
H       2.707180000000000    -10.568770000000001     -6.068010000000000
H       1.445880000000000    -12.250040000000000     -4.608700000000000
H       1.401600000000000    -13.377039999999999     -6.005910000000000
C       3.345300000000000    -13.089480000000000     -5.106980000000000
H       0.903680000000000    -10.085750000000001     -7.728650000000000
H       3.920120000000000    -13.424840000000000     -5.995720000000000
H       3.919300000000000    -12.301520000000000     -4.573380000000000
H       3.212680000000000    -13.954100000000000     -4.422090000000000
C      -2.484910000000000     -9.086340000000000     -8.380039999999999
C      -1.649550000000000     -8.004910000000001     -8.217710000000000
C      -1.682210000000000     -7.661140000000000     -6.881980000000000
C      -2.491040000000000     -8.508699999999999     -6.244290000000000
N      -3.041970000000000     -9.447990000000001     -7.141200000000000
C      -2.737000000000000     -8.502660000000001     -4.758140000000000
N      -1.817420000000000     -9.444050000000001     -4.085900000000000
C      -2.400690000000000    -10.703480000000001     -3.582910000000000
H      -1.069210000000000     -7.524660000000000     -8.994830000000000
H      -2.677580000000000     -9.593420000000000     -9.314859999999999
H      -1.121760000000000     -6.864170000000000     -6.429660000000000
H      -3.812090000000000     -8.653980000000001     -4.533700000000000
H      -2.493760000000000     -7.485590000000000     -4.383490000000000
C      -3.117590000000000    -11.487130000000001     -4.694440000000000
C      -1.254490000000000    -11.565220000000000     -3.042780000000000
C      -3.369060000000000    -10.413270000000001     -2.409850000000000
H      -2.415510000000000    -11.692920000000001     -5.530550000000000
H      -3.491430000000000    -12.454990000000000     -4.297460000000000
H      -3.991260000000000    -10.927410000000000     -5.084620000000000
H      -0.704590000000000    -11.036740000000000     -2.241300000000000
H      -1.633380000000000    -12.518860000000000     -2.620540000000000
H      -0.550840000000000    -11.798629999999999     -3.859850000000000
H      -2.847190000000000     -9.879160000000001     -1.586790000000000
H      -4.234260000000000     -9.793469999999999     -2.716450000000000
H      -3.766320000000000    -11.360180000000000     -1.990670000000000

-C 0
6-31g(d,p)
****
-H 0
6-31g(d,p)
****
-Mg 0
6-31g(d,p)
****
-N 0
6-31+g(d,p)
****
-Na 0
6-31g(d,p)
****
-O 0
6-31+g(d,p)
****


