%chk=lowest10_c2_a1_speciation0_speciation3_speciationDFT133_rank09_E208.44.chk
%nprocshared=20
%mem=40GB
#p opt=loose PM7/gen scf=xqc 

lowest10_c2_a1_speciation0_speciation3_speciationDFT133_rank09_E208.44 DFT input

0 1
Na      0.224880000000000     -0.050050000000000      0.284130000000000
C      -2.217750000000000      1.428250000000000      1.584110000000000
C      -0.688330000000000      0.882940000000000      3.285430000000000
O      -1.121540000000000      0.623430000000000      1.967880000000000
C      -1.753860000000000      2.742940000000000      0.962890000000000
C      -1.405970000000000     -0.034940000000000      4.266860000000000
H      -2.784890000000000      0.868830000000000      0.811820000000000
H      -2.928400000000000      1.608330000000000      2.419090000000000
H       0.400770000000000      0.664090000000000      3.331900000000000
H      -0.800640000000000      1.951000000000000      3.575590000000000
H      -1.235310000000000     -1.097370000000000      3.989980000000000
H      -1.016230000000000      0.137520000000000      5.291190000000000
H      -2.496120000000000      0.169320000000000      4.257890000000000
H      -1.084960000000000      2.549010000000000      0.099050000000000
H      -2.638410000000000      3.310300000000000      0.604200000000000
H      -1.213680000000000      3.361360000000000      1.708040000000000
C       2.599990000000000     -1.736380000000000     -1.022740000000000
C       1.902450000000000     -2.734720000000000      0.978160000000000
O       1.906390000000000     -1.564580000000000      0.193930000000000
C       1.699410000000000     -2.326380000000000     -2.106600000000000
C       1.001740000000000     -2.495860000000000      2.186100000000000
H       2.910570000000000     -0.725650000000000     -1.362640000000000
H       3.535500000000000     -2.324730000000000     -0.899860000000000
H       1.489920000000000     -3.599840000000000      0.418020000000000
H       2.927830000000000     -2.959420000000000      1.342680000000000
H      -0.034980000000000     -2.268520000000000      1.856480000000000
H       0.979600000000000     -3.396710000000000      2.833930000000000
H       1.379770000000000     -1.636050000000000      2.778950000000000
H       0.784280000000000     -1.710040000000000     -2.223780000000000
H       2.244680000000000     -2.336740000000000     -3.073530000000000
H       1.407080000000000     -3.366290000000000     -1.858390000000000
C       2.447450000000000      2.113220000000000     -0.317810000000000
C       0.956900000000000      2.229060000000000     -2.131670000000000
O       1.315240000000000      1.548670000000000     -0.947830000000000
C       2.032000000000000      3.163940000000000      0.706840000000000
C       1.636790000000000      1.595580000000000     -3.339930000000000
H       2.974270000000000      1.296360000000000      0.220490000000000
H       3.180530000000000      2.530820000000000     -1.043340000000000
H      -0.141220000000000      2.127940000000000     -2.256540000000000
H       1.160690000000000      3.321800000000000     -2.081620000000000
H       1.381880000000000      0.516500000000000     -3.402290000000000
H       1.289540000000000      2.098320000000000     -4.266490000000000
H       2.738190000000000      1.701990000000000     -3.263720000000000
H       1.351980000000000      2.715870000000000      1.462440000000000
H       2.934110000000000      3.551070000000000      1.225840000000000
H       1.515730000000000      4.010310000000000      0.209080000000000
C      -1.959880000000000     -0.447620000000000     -2.342460000000000
C      -2.349090000000000     -1.770920000000000     -0.439230000000000
O      -1.545880000000000     -0.768740000000000     -1.030780000000000
C      -2.976910000000000      0.688970000000000     -2.328880000000000
C      -1.787510000000000     -3.159570000000000     -0.724320000000000
H      -1.063700000000000     -0.104980000000000     -2.900620000000000
H      -2.350610000000000     -1.327810000000000     -2.899090000000000
H      -2.329560000000000     -1.611920000000000      0.660270000000000
H      -3.417060000000000     -1.701910000000000     -0.742970000000000
H      -0.742700000000000     -3.230000000000000     -0.362870000000000
H      -2.397230000000000     -3.922070000000000     -0.195890000000000
H      -1.807050000000000     -3.374380000000000     -1.811860000000000
H      -2.555180000000000      1.578490000000000     -1.815560000000000
H      -3.232360000000000      0.968380000000000     -3.372400000000000
H      -3.903190000000000      0.376220000000000     -1.805290000000000
Na     -7.173780000000000    -15.894349999999999     -0.742550000000000
C      -4.584090000000000    -13.733860000000000     -1.742710000000000
C      -4.010050000000000    -14.734570000000000      0.257790000000000
O      -4.993750000000000    -14.642799999999999     -0.746640000000000
C      -5.675080000000000    -13.660320000000000     -2.801500000000000
C      -4.489400000000000    -15.721170000000001      1.312460000000000
H      -4.446870000000000    -12.713050000000001     -1.318430000000000
H      -3.647750000000000    -14.081009999999999     -2.236020000000000
H      -3.049530000000000    -15.114350000000000     -0.159640000000000
H      -3.861680000000000    -13.750909999999999      0.755760000000000
H      -4.654010000000000    -16.718820000000001      0.852100000000000
H      -3.731910000000000    -15.815590000000000      2.118470000000000
H      -5.445150000000000    -15.367089999999999      1.755120000000000
H      -6.625660000000000    -13.312820000000000     -2.342750000000000
H      -5.381660000000000    -12.952010000000000     -3.604190000000000
H      -5.838270000000000    -14.664770000000001     -3.247820000000000
Mg      1.025790000000000    -10.890590000000000     -2.271220000000000
C       1.938910000000000    -13.504149999999999     -1.054160000000000
C       0.029160000000000    -13.027710000000001      0.242830000000000
O       0.933630000000000    -12.574410000000000     -0.729200000000000
C       1.567940000000000    -14.290730000000000     -2.299140000000000
C      -1.201200000000000    -12.133820000000000      0.170850000000000
H       2.865540000000000    -12.931660000000001     -1.267520000000000
H       2.176750000000000    -14.188459999999999     -0.229850000000000
H      -0.288170000000000    -14.080069999999999      0.072050000000000
H       0.477910000000000    -12.911720000000001      1.245010000000000
H      -1.703750000000000    -12.259270000000001     -0.810220000000000
H      -1.908310000000000    -12.385880000000000      0.985730000000000
H      -0.907920000000000    -11.067990000000000      0.268690000000000
H       1.406890000000000    -13.597799999999999     -3.151970000000000
H       2.396150000000000    -14.986540000000000     -2.551950000000000
H       0.644380000000000    -14.876960000000000     -2.117180000000000
H      -1.282930000000000    -11.351170000000000     -3.669170000000000
C      -1.182620000000000     -9.191850000000001     -4.085400000000000
C      -1.212210000000000    -10.377720000000000     -3.141100000000000
C      -0.032790000000000     -9.298470000000000     -5.095400000000000
H      -2.151860000000000     -9.159950000000000     -4.619070000000000
H      -1.064950000000000     -8.264049999999999     -3.485420000000000
H       0.941440000000000     -9.302550000000000     -4.574290000000000
H      -0.120490000000000    -10.241040000000000     -5.677230000000000
C      -0.051310000000000     -8.114640000000000     -6.053740000000000
H      -1.989370000000000    -10.274290000000001     -2.358720000000000
H      -1.016710000000000     -8.090410000000000     -6.601200000000000
H       0.077440000000000     -7.164330000000000     -5.492120000000000
H       0.776130000000000     -8.209899999999999     -6.788030000000000
C       3.082190000000000    -10.962199999999999     -4.497850000000000
C       4.322000000000000    -10.451820000000000     -4.812920000000000
C       4.735150000000000     -9.709080000000000     -3.719130000000000
C       3.720980000000000     -9.790419999999999     -2.788870000000000
N       2.728160000000000    -10.537810000000000     -3.277170000000000
C       3.700400000000000     -9.170140000000000     -1.422050000000000
N       2.351310000000000     -9.195040000000001     -0.821330000000000
C       1.663900000000000     -7.885630000000000     -0.751660000000000
H       4.858050000000000    -10.605140000000000     -5.738090000000000
H       2.463620000000000    -11.596060000000000     -5.121860000000000
H       5.660580000000000     -9.161440000000001     -3.620180000000000
H       4.370740000000000     -9.762820000000000     -0.793310000000000
H       4.144030000000000     -8.160970000000001     -1.449590000000000
C       1.653720000000000     -7.190580000000000     -2.125420000000000
C       0.195680000000000     -8.112620000000000     -0.341190000000000
C       2.327880000000000     -6.994990000000000      0.316490000000000
H       1.173150000000000     -7.856470000000000     -2.863210000000000
H       1.087790000000000     -6.237920000000000     -2.079620000000000
H       2.671110000000000     -6.955920000000000     -2.490670000000000
H       0.120390000000000     -8.575540000000000      0.651360000000000
H      -0.353800000000000     -7.147040000000000     -0.288990000000000
H      -0.325520000000000     -8.772980000000000     -1.061070000000000
H       2.315700000000000     -7.503250000000000      1.303770000000000
H       3.379800000000000     -6.763420000000000      0.065340000000000
H       1.786740000000000     -6.032330000000000      0.414630000000000
Mg      2.659570000000000    -10.712520000000000      1.364850000000000
C       4.344830000000000     -9.454850000000000      3.629600000000000
C       5.283690000000000     -8.199680000000001      1.840100000000000
O       4.371530000000000     -9.202760000000000      2.238880000000000
C       3.686480000000000     -8.333900000000000      4.426700000000000
C       6.736170000000000     -8.488870000000000      2.213750000000000
H       3.748970000000000    -10.375230000000000      3.765100000000000
H       5.337090000000000     -9.717340000000000      4.040040000000000
H       5.255270000000000     -8.181410000000000      0.733010000000000
H       4.952760000000000     -7.195280000000000      2.173740000000000
H       7.024630000000000     -9.507680000000001      1.880160000000000
H       7.391600000000000     -7.746710000000000      1.715380000000000
H       6.890500000000000     -8.392550000000000      3.306230000000000
H       2.674710000000000     -8.114170000000000      4.038950000000000
H       3.596840000000000     -8.649240000000001      5.487160000000000
H       4.296730000000000     -7.411880000000000      4.379790000000000
H       1.104190000000000     -8.943610000000000      2.712580000000000
C       0.776530000000000    -10.567539999999999      4.093980000000000
C       0.949910000000000    -10.038200000000000      2.665750000000000
C      -0.223070000000000     -9.742150000000001      4.922080000000000
H       0.441500000000000    -11.623310000000000      4.071270000000000
H       1.743350000000000    -10.513159999999999      4.624400000000000
H      -0.257990000000000    -10.174550000000000      5.945350000000000
H       0.137290000000000     -8.693049999999999      5.005300000000000
C      -1.640790000000000     -9.739120000000000      4.353260000000000
H       0.008740000000000    -10.222180000000000      2.120080000000000
H      -1.669780000000000     -9.247520000000000      3.358960000000000
H      -2.023950000000000    -10.777290000000001      4.267090000000000
H      -2.305320000000000     -9.167000000000000      5.034970000000000
C       2.029120000000000    -16.513809999999999      2.117850000000000
C       2.839560000000000    -16.709140000000001      3.220610000000000
C       3.256810000000000    -15.460200000000000      3.642100000000000
C       2.715920000000000    -14.596620000000000      2.803480000000000
N       1.931420000000000    -15.264559999999999      1.854610000000000
C       2.905500000000000    -13.119429999999999      2.830180000000000
N       3.490790000000000    -12.622890000000000      1.582720000000000
C       4.943640000000000    -12.902950000000001      1.325810000000000
H       3.109560000000000    -17.658840000000001      3.658360000000000
H       1.536610000000000    -17.274429999999999      1.532750000000000
H       3.909750000000000    -15.221909999999999      4.468210000000000
H       3.469420000000000    -12.762869999999999      3.713570000000000
H       1.903550000000000    -12.689930000000000      2.916230000000000
C       5.103600000000000    -14.304800000000000      0.703900000000000
C       5.508040000000000    -11.906079999999999      0.301170000000000
C       5.818660000000000    -12.801850000000000      2.596580000000000
H       4.529950000000000    -14.377810000000000     -0.242510000000000
H       6.168730000000000    -14.510590000000001      0.465430000000000
H       4.766200000000000    -15.105570000000000      1.381180000000000
H       5.479390000000000    -10.880789999999999      0.705600000000000
H       6.575960000000000    -12.132790000000000      0.077280000000000
H       4.953110000000000    -11.955700000000000     -0.657650000000000
H       5.759970000000000    -11.787030000000000      3.033260000000000
H       5.520940000000000    -13.546550000000000      3.360450000000000
H       6.884060000000000    -13.005330000000001      2.353350000000000

-C 0
6-31g(d,p)
****
-H 0
6-31g(d,p)
****
-Mg 0
6-31g(d,p)
****
-N 0
6-31+g(d,p)
****
-Na 0
6-31g(d,p)
****
-O 0
6-31+g(d,p)
****


