%chk=lowest10_c2_a1_speciation0_speciation3_speciationDFT11_rank05_E166.68.chk
%nprocshared=20
%mem=40GB
#p opt=loose PM7/gen scf=xqc 

lowest10_c2_a1_speciation0_speciation3_speciationDFT11_rank05_E166.68 DFT input

0 1
Na     -0.153200000000000     -0.175370000000000      0.292130000000000
C       2.355230000000000      1.206380000000000      1.590180000000000
C       1.117390000000000      0.154590000000000      3.289480000000000
O       1.108610000000000      0.662990000000000      1.973280000000000
C       3.255220000000000      0.143980000000000      0.966020000000000
C       0.676570000000000      1.232350000000000      4.270900000000000
H       2.156920000000000      1.980340000000000      0.820210000000000
H       2.869820000000000      1.727200000000000      2.426380000000000
H       0.386640000000000     -0.682160000000000      3.333550000000000
H       2.099930000000000     -0.278660000000000      3.581000000000000
H      -0.329180000000000      1.612640000000000      3.991030000000000
H       0.630140000000000      0.807780000000000      5.294790000000000
H       1.396300000000000      2.076340000000000      4.263000000000000
H       2.747700000000000     -0.333710000000000      0.102600000000000
H       4.190920000000000      0.621810000000000      0.607060000000000
H       3.516750000000000     -0.636010000000000      1.709560000000000
C      -2.808580000000000     -1.390270000000000     -1.023010000000000
C      -3.321560000000000     -0.288790000000000      0.978780000000000
O      -2.310470000000000     -0.876520000000000      0.193090000000000
C      -2.863010000000000     -0.314900000000000     -2.106420000000000
C      -2.663850000000000      0.373450000000000      2.185250000000000
H      -2.093450000000000     -2.169220000000000     -1.362680000000000
H      -3.789280000000000     -1.900240000000000     -0.900200000000000
H      -3.868670000000000      0.500190000000000      0.419640000000000
H      -4.026470000000000     -1.065700000000000      1.345260000000000
H      -1.949320000000000      1.157610000000000      1.854110000000000
H      -3.433480000000000      0.843410000000000      2.832160000000000
H      -2.108150000000000     -0.383030000000000      2.778970000000000
H      -1.868650000000000      0.163110000000000     -2.223540000000000
H      -3.149250000000000     -0.779250000000000     -3.073210000000000
H      -3.611480000000000      0.463380000000000     -1.856570000000000
C       0.610340000000000     -3.183340000000000     -0.321270000000000
C       1.457180000000000     -1.953950000000000     -2.134420000000000
O       0.688910000000000     -1.920560000000000     -0.950430000000000
C       1.727100000000000     -3.348660000000000      0.703510000000000
C       0.566650000000000     -2.224830000000000     -3.341010000000000
H      -0.361670000000000     -3.233890000000000      0.214380000000000
H       0.608140000000000     -4.024130000000000     -1.047780000000000
H       1.922260000000000     -0.954170000000000     -2.260170000000000
H       2.298880000000000     -2.680570000000000     -2.085050000000000
H      -0.238150000000000     -1.461990000000000     -3.401240000000000
H       1.174600000000000     -2.177030000000000     -4.268230000000000
H       0.105700000000000     -3.230940000000000     -3.263580000000000
H       1.676630000000000     -2.534930000000000      1.458170000000000
H       1.612300000000000     -4.323850000000000      1.221850000000000
H       2.718440000000000     -3.322770000000000      0.206160000000000
C       0.594890000000000      1.923150000000000     -2.345520000000000
C      -0.354950000000000      2.921080000000000     -0.442870000000000
O       0.110160000000000      1.723720000000000     -1.033880000000000
C       2.087850000000000      2.232470000000000     -2.329780000000000
C      -1.838220000000000      3.126650000000000     -0.726910000000000
H       0.441100000000000      0.977620000000000     -2.906260000000000
H       0.030540000000000      2.704990000000000     -2.900610000000000
H      -0.224940000000000      2.826890000000000      0.656480000000000
H       0.236880000000000      3.812060000000000     -0.749410000000000
H      -2.418720000000000      2.255500000000000     -0.364200000000000
H      -2.194530000000000      4.035980000000000     -0.199250000000000
H      -2.015170000000000      3.249290000000000     -1.814660000000000
H       2.643640000000000      1.419780000000000     -1.816880000000000
H       2.458820000000000      2.315580000000000     -3.372620000000000
H       2.281260000000000      3.189380000000000     -1.803390000000000
Na    -10.061000000000000    -17.543009999999999     -2.920350000000000
C      -7.450210000000000    -15.368950000000000     -1.921240000000000
C      -6.874340000000000    -16.371479999999998     -3.919100000000000
O      -7.865260000000000    -16.270040000000002     -2.922350000000000
C      -8.541320000000001    -15.290749999999999     -0.863200000000000
C      -7.356230000000000    -17.350000000000001     -4.980080000000000
H      -6.517090000000000    -15.724720000000000     -1.427660000000000
H      -7.304720000000000    -14.347840000000000     -2.341710000000000
H      -6.703160000000000    -15.386749999999999     -4.410940000000000
H      -5.925090000000000    -16.768650000000001     -3.494380000000000
H      -8.306110000000000    -16.987010000000001     -5.427820000000000
H      -6.593910000000000    -17.448840000000001     -5.780980000000000
H      -7.531730000000000    -18.347629999999999     -4.523390000000000
H      -8.711020000000000    -16.294910000000002     -0.418720000000000
H      -8.243140000000000    -14.585750000000001     -0.059310000000000
H      -9.489229999999999    -14.935940000000000     -1.321770000000000
Mg      0.055100000000000     -9.863420000000000     -3.776610000000000
H       0.604620000000000    -12.102670000000000     -2.103130000000000
C       1.941130000000000    -10.529730000000001     -1.432050000000000
C       1.191210000000000    -11.261900000000001     -2.535960000000000
C       1.036280000000000    -10.068140000000000     -0.279680000000000
H       2.704280000000000    -11.218070000000001     -1.013580000000000
H       2.451040000000000     -9.665600000000000     -1.895360000000000
H       0.219160000000000     -9.411870000000000     -0.648010000000000
H       0.587120000000000    -10.956530000000001      0.212800000000000
C       1.855480000000000     -9.312279999999999      0.766410000000000
H       1.914510000000000    -11.689550000000001     -3.256910000000000
H       2.684310000000000     -9.949610000000000      1.143010000000000
H       2.287170000000000     -8.392790000000000      0.324640000000000
H       1.213450000000000     -9.021839999999999      1.624130000000000
C      -4.241190000000000    -10.776180000000000      0.372940000000000
C      -2.875490000000000    -10.787060000000000      0.595610000000000
C      -2.364490000000000    -11.839540000000000     -0.137240000000000
C      -3.393010000000000    -12.390779999999999     -0.764740000000000
N      -4.579140000000000    -11.716490000000000     -0.435720000000000
C      -3.314350000000000    -13.571040000000000     -1.684850000000000
N      -2.434830000000000    -13.259270000000001     -2.817300000000000
C      -1.921560000000000    -14.379810000000001     -3.642540000000000
H      -2.313470000000000    -10.099850000000000      1.216720000000000
H      -4.948310000000000    -10.080530000000000      0.797430000000000
H      -1.335500000000000    -12.157859999999999     -0.203610000000000
H      -2.931020000000000    -14.420210000000001     -1.089940000000000
H      -4.330170000000000    -13.813480000000000     -2.060840000000000
C      -3.102020000000000    -15.120509999999999     -4.295680000000000
C      -1.030710000000000    -13.797940000000001     -4.748750000000000
C      -1.068040000000000    -15.378230000000000     -2.822600000000000
H      -3.718680000000000    -14.408110000000001     -4.885110000000000
H      -2.741180000000000    -15.922879999999999     -4.974390000000000
H      -3.745930000000000    -15.590520000000000     -3.524480000000000
H      -0.157420000000000    -13.272119999999999     -4.307030000000000
H      -0.644400000000000    -14.604229999999999     -5.411840000000000
H      -1.605180000000000    -13.080380000000000     -5.368440000000000
H      -0.196650000000000    -14.870200000000001     -2.357520000000000
H      -1.652870000000000    -15.883220000000000     -2.028930000000000
H      -0.683550000000000    -16.186710000000001     -3.484380000000000
Mg     -1.512810000000000    -11.374219999999999     -2.778080000000000
H      -2.062560000000000     -9.125650000000000     -4.440050000000000
C      -3.544630000000000     -9.059970000000000     -2.855650000000000
C      -2.660150000000000     -9.833310000000001     -3.823270000000000
C      -2.771810000000000     -8.050549999999999     -1.993220000000000
H      -4.299030000000000     -8.499440000000000     -3.445460000000000
H      -4.062780000000000     -9.799310000000000     -2.218300000000000
H      -1.965990000000000     -8.549880000000000     -1.414070000000000
H      -2.315500000000000     -7.280090000000000     -2.650240000000000
C      -3.721810000000000     -7.343570000000000     -1.026680000000000
H      -3.291740000000000    -10.430429999999999     -4.509070000000000
H      -4.541470000000000     -6.843650000000000     -1.586290000000000
H      -4.166680000000000     -8.074389999999999     -0.323130000000000
H      -3.175030000000000     -6.577260000000000     -0.438370000000000
C       2.470910000000000     -6.893180000000000     -2.022010000000000
C       1.094330000000000     -6.764930000000000     -2.074490000000000
C       0.708300000000000     -7.161430000000000     -3.338970000000000
C       1.815610000000000     -7.521420000000000     -3.970790000000000
N       2.929130000000000     -7.345900000000000     -3.134360000000000
C       1.882400000000000     -8.031639999999999     -5.378630000000000
N       1.086130000000000     -9.258170000000000     -5.501740000000000
C       0.708390000000000     -9.721390000000000     -6.859680000000000
H       0.442640000000000     -6.430950000000000     -1.276640000000000
H       3.098400000000000     -6.664070000000000     -1.174620000000000
H      -0.291290000000000     -7.188500000000000     -3.744360000000000
H       1.499830000000000     -7.226990000000000     -6.032810000000000
H       2.938340000000000     -8.249400000000000     -5.641370000000000
C       1.979380000000000    -10.035959999999999     -7.669200000000000
C      -0.117790000000000    -11.007560000000000     -6.720460000000000
C      -0.153060000000000     -8.685029999999999     -7.622270000000000
H       2.600050000000000    -10.781120000000000     -7.126330000000000
H       1.721380000000000    -10.450279999999999     -8.667540000000001
H       2.585610000000000     -9.119740000000000     -7.827180000000000
H      -1.053670000000000    -10.808059999999999     -6.156270000000000
H      -0.400250000000000    -11.407460000000000     -7.720190000000000
H       0.464940000000000    -11.784079999999999     -6.185130000000000
H      -1.087740000000000     -8.457409999999999     -7.067130000000000
H       0.390650000000000     -7.738520000000000     -7.810390000000000
H      -0.434230000000000     -9.083259999999999     -8.623189999999999

-C 0
6-31g(d,p)
****
-H 0
6-31g(d,p)
****
-Mg 0
6-31g(d,p)
****
-N 0
6-31+g(d,p)
****
-Na 0
6-31g(d,p)
****
-O 0
6-31+g(d,p)
****


