%chk=lowest10_c2_a1_speciation0_speciation3_speciationDFT133_rank01_E207.99.chk
%nprocshared=20
%mem=40GB
#p opt=loose PM7/gen scf=xqc 

lowest10_c2_a1_speciation0_speciation3_speciationDFT133_rank01_E207.99 DFT input

0 1
Na     -0.113290000000000     -0.105150000000000     -0.354780000000000
C      -0.006020000000000     -2.878580000000000      1.109850000000000
C      -0.832240000000000     -3.219730000000000     -1.065000000000000
O      -0.594260000000000     -2.288990000000000     -0.031630000000000
C       1.517340000000000     -2.869500000000000      1.018760000000000
C      -2.232280000000000     -3.805000000000000     -0.933970000000000
H      -0.297920000000000     -2.264730000000000      1.986950000000000
H      -0.389390000000000     -3.902720000000000      1.307640000000000
H      -0.768840000000000     -2.674160000000000     -2.031750000000000
H      -0.062070000000000     -4.021360000000000     -1.111540000000000
H      -2.988860000000000     -2.991480000000000     -0.946170000000000
H      -2.428930000000000     -4.493920000000000     -1.781170000000000
H      -2.325930000000000     -4.366270000000000      0.017370000000000
H       1.890420000000000     -1.834750000000000      0.871230000000000
H       1.942710000000000     -3.266730000000000      1.964310000000000
H       1.865050000000000     -3.504140000000000      0.178580000000000
C      -0.412870000000000      2.747370000000000     -1.758310000000000
C      -2.318820000000000      1.443910000000000     -2.155350000000000
O      -0.965220000000000      1.449030000000000     -1.764900000000000
C      -0.678280000000000      3.465340000000000     -0.436360000000000
C      -2.859730000000000      0.028200000000000     -1.978740000000000
H       0.687120000000000      2.631040000000000     -1.858060000000000
H      -0.741990000000000      3.354520000000000     -2.629830000000000
H      -2.931040000000000      2.119620000000000     -1.520610000000000
H      -2.413150000000000      1.725290000000000     -3.226160000000000
H      -2.779890000000000     -0.286620000000000     -0.915900000000000
H      -3.925700000000000     -0.017650000000000     -2.284120000000000
H      -2.276750000000000     -0.682690000000000     -2.601930000000000
H      -0.322590000000000      2.848760000000000      0.414670000000000
H      -0.132460000000000      4.431960000000000     -0.425400000000000
H      -1.759290000000000      3.672190000000000     -0.306770000000000
C       2.576460000000000      0.228260000000000     -1.978820000000000
C       3.089550000000000      0.885590000000000      0.218900000000000
O       2.077270000000000      0.492930000000000     -0.683320000000000
C       2.938780000000000     -1.245580000000000     -2.131340000000000
C       3.234110000000000      2.402960000000000      0.234190000000000
H       1.767690000000000      0.461170000000000     -2.704250000000000
H       3.435530000000000      0.881070000000000     -2.250960000000000
H       2.781540000000000      0.554330000000000      1.232350000000000
H       4.065190000000000      0.389970000000000      0.017390000000000
H       2.262920000000000      2.878950000000000      0.486170000000000
H       3.983890000000000      2.696210000000000      0.998190000000000
H       3.568590000000000      2.769560000000000     -0.757740000000000
H       2.053570000000000     -1.882740000000000     -1.920220000000000
H       3.274840000000000     -1.437770000000000     -3.172090000000000
H       3.758240000000000     -1.518990000000000     -1.435370000000000
C       0.133970000000000      1.118820000000000      2.850430000000000
C      -1.933030000000000      0.183700000000000      2.236210000000000
O      -0.608350000000000      0.474460000000000      1.836190000000000
C       0.858090000000000      0.100140000000000      3.724510000000000
C      -2.871670000000000      1.334850000000000      1.892710000000000
H       0.896310000000000      1.754290000000000      2.353340000000000
H      -0.485100000000000      1.807220000000000      3.467000000000000
H      -2.266650000000000     -0.711810000000000      1.669370000000000
H      -2.008760000000000     -0.085280000000000      3.312970000000000
H      -2.827720000000000      1.551310000000000      0.807110000000000
H      -3.913230000000000      1.055710000000000      2.156590000000000
H      -2.591630000000000      2.249440000000000      2.453450000000000
H       1.511520000000000     -0.547030000000000      3.102560000000000
H       1.487960000000000      0.632590000000000      4.467460000000000
H       0.128860000000000     -0.537210000000000      4.264850000000000
Na     -7.112220000000000    -17.810929999999999     -1.560230000000000
C      -3.657310000000000    -17.149059999999999     -1.559150000000000
C      -4.814760000000000    -15.150740000000001     -1.560300000000000
O      -4.935040000000000    -16.554469999999998     -1.552870000000000
C      -3.832940000000000    -18.660959999999999     -1.557320000000000
C      -6.211850000000000    -14.547760000000000     -1.555260000000000
H      -3.092220000000000    -16.869319999999998     -2.477480000000000
H      -3.083970000000000    -16.867480000000000     -0.646680000000000
H      -4.280350000000000    -14.792460000000000     -0.650830000000000
H      -4.298740000000000    -14.803850000000001     -2.482790000000000
H      -6.763380000000000    -14.875240000000000     -0.648110000000000
H      -6.148750000000000    -13.439439999999999     -1.559440000000000
H      -6.770890000000000    -14.880800000000001     -2.455990000000000
H      -4.399990000000000    -18.977760000000000     -2.458930000000000
H      -2.841920000000000    -19.160930000000000     -1.560150000000000
H      -4.394080000000000    -18.976150000000001     -0.651480000000000
Mg      1.924370000000000    -14.257170000000000     -0.997890000000000
C       0.270600000000000    -12.424370000000000      0.748840000000000
C      -1.175150000000000    -12.751620000000001     -1.083930000000000
O       0.105480000000000    -12.949809999999999     -0.546250000000000
C       0.066950000000000    -13.500800000000000      1.800610000000000
C      -1.332370000000000    -13.716550000000000     -2.251070000000000
H       1.313980000000000    -12.054080000000001      0.827400000000000
H      -0.382150000000000    -11.566100000000000      0.952900000000000
H      -1.983040000000000    -12.954300000000000     -0.346670000000000
H      -1.253280000000000    -11.722970000000000     -1.477700000000000
H      -1.303120000000000    -14.763090000000000     -1.884040000000000
H      -2.290890000000000    -13.533200000000001     -2.775670000000000
H      -0.499190000000000    -13.585929999999999     -2.972390000000000
H       0.785650000000000    -14.331659999999999      1.637570000000000
H       0.242120000000000    -13.065550000000000      2.807520000000000
H      -0.969820000000000    -13.890960000000000      1.749390000000000
H       0.787550000000000    -16.747630000000001     -0.953280000000000
C       2.433030000000000    -17.264630000000000     -2.321130000000000
C       1.235400000000000    -16.427340000000001     -1.916750000000000
C       3.519760000000000    -17.262000000000000     -1.238260000000000
H       2.079050000000000    -18.298390000000001     -2.497980000000000
H       2.849400000000000    -16.854170000000000     -3.266000000000000
H       3.900360000000000    -16.237909999999999     -1.073790000000000
H       3.104670000000000    -17.637530000000002     -0.278430000000000
C       4.692100000000000    -18.140740000000001     -1.655010000000000
H       0.478130000000000    -16.358239999999999     -2.722080000000000
H       4.341550000000000    -19.181400000000000     -1.817560000000000
H       5.146610000000000    -17.754650000000002     -2.592790000000000
H       5.465370000000000    -18.142090000000000     -0.858170000000000
C       4.127370000000000    -14.582540000000000      1.059440000000000
C       5.370170000000000    -14.077330000000000      1.371060000000000
C       5.637060000000000    -13.081300000000001      0.446190000000000
C       4.547450000000000    -13.032010000000000     -0.396920000000000
N       3.653070000000000    -13.949880000000000     -0.022330000000000
C       4.345460000000000    -12.097479999999999     -1.554120000000000
N       3.225620000000000    -12.519620000000000     -2.419760000000000
C       3.616150000000000    -13.078279999999999     -3.733970000000000
H       6.006330000000000    -14.403980000000001      2.180630000000000
H       3.599340000000000    -15.373220000000000      1.578860000000000
H       6.528290000000000    -12.474410000000001      0.386690000000000
H       4.107660000000000    -11.116410000000000     -1.133600000000000
H       5.290070000000000    -11.956379999999999     -2.105300000000000
C       4.655690000000000    -14.202320000000000     -3.571770000000000
C       2.373240000000000    -13.695690000000001     -4.404530000000000
C       4.147690000000000    -11.957680000000000     -4.649140000000000
H       4.242160000000000    -14.984330000000000     -2.911560000000000
H       4.900770000000000    -14.655279999999999     -4.553790000000000
H       5.602350000000000    -13.844930000000000     -3.124890000000000
H       1.595900000000000    -12.942320000000000     -4.586680000000000
H       2.634230000000000    -14.134340000000000     -5.392570000000000
H       1.930250000000000    -14.491560000000000     -3.775090000000000
H       3.382300000000000    -11.161730000000000     -4.767470000000000
H       5.063440000000000    -11.491000000000000     -4.240670000000000
H       4.394770000000000    -12.355890000000000     -5.654990000000000
Mg      1.486510000000000    -10.490560000000000     -2.241970000000000
C       2.375910000000000     -7.854380000000000     -3.587690000000000
C       4.552810000000000     -8.743770000000000     -3.227840000000000
O       3.158500000000000     -8.911630000000001     -3.069830000000000
C       2.347400000000000     -7.824420000000000     -5.112040000000000
C       5.111090000000000     -7.483980000000000     -2.568960000000000
H       1.347010000000000     -8.024749999999999     -3.223240000000000
H       2.647860000000000     -6.869220000000000     -3.166400000000000
H       5.026300000000000     -9.594889999999999     -2.700340000000000
H       4.853870000000000     -8.834110000000001     -4.291250000000000
H       4.774160000000000     -7.419420000000000     -1.513150000000000
H       6.218590000000000     -7.524970000000000     -2.592680000000000
H       4.797060000000000     -6.576440000000000     -3.120660000000000
H       2.025700000000000     -8.799939999999999     -5.521000000000000
H       1.627380000000000     -7.047960000000000     -5.444730000000000
H       3.348000000000000     -7.578610000000000     -5.515890000000000
H       1.079810000000000    -10.711430000000000     -4.916090000000000
C      -0.777890000000000     -9.685190000000000     -4.530850000000000
C       0.292690000000000    -10.709870000000000     -4.138540000000000
C      -1.225070000000000     -9.816660000000001     -5.996790000000000
H      -1.663210000000000     -9.787870000000000     -3.872760000000000
H      -0.367960000000000     -8.666210000000000     -4.418200000000000
H      -1.970830000000000     -9.017860000000001     -6.199310000000000
H      -0.354450000000000     -9.651350000000001     -6.669170000000000
C      -1.862830000000000    -11.164529999999999     -6.328550000000000
H      -0.178790000000000    -11.707430000000000     -4.135260000000000
H      -1.131090000000000    -11.990539999999999     -6.212640000000000
H      -2.739310000000000    -11.348310000000000     -5.672800000000000
H      -2.201710000000000    -11.156430000000000     -7.386270000000000
C      -3.001240000000000     -9.610060000000001      1.458920000000000
C      -3.098620000000000     -8.232080000000000      1.404960000000000
C      -2.208880000000000     -7.801820000000000      0.438290000000000
C      -1.623570000000000     -8.889820000000000     -0.024360000000000
N      -2.137070000000000    -10.027450000000000      0.611230000000000
C      -0.557390000000000     -8.930400000000001     -1.063490000000000
N       0.671220000000000     -9.547150000000000     -0.558700000000000
C       1.508100000000000     -8.760660000000000      0.408910000000000
H      -3.736040000000000     -7.609290000000000      2.015110000000000
H      -3.549920000000000    -10.273560000000000      2.108690000000000
H      -2.002080000000000     -6.789620000000000      0.128660000000000
H      -0.356310000000000     -7.945790000000000     -1.528000000000000
H      -0.941620000000000     -9.570520000000000     -1.862490000000000
C       0.966990000000000     -8.948840000000001      1.840450000000000
C       2.951970000000000     -9.287610000000001      0.418010000000000
C       1.569650000000000     -7.251070000000000      0.076930000000000
H       0.971070000000000    -10.022349999999999      2.119510000000000
H       1.602320000000000     -8.410500000000001      2.575440000000000
H      -0.057320000000000     -8.560290000000000      1.956570000000000
H       3.424980000000000     -9.131620000000000     -0.565560000000000
H       3.569320000000000     -8.734030000000001      1.162510000000000
H       2.987780000000000    -10.361140000000001      0.694220000000000
H       2.003140000000000     -7.088360000000000     -0.927820000000000
H       0.569190000000000     -6.777850000000000      0.124330000000000
H       2.208500000000000     -6.715770000000000      0.812440000000000

-C 0
6-31g(d,p)
****
-H 0
6-31g(d,p)
****
-Mg 0
6-31g(d,p)
****
-N 0
6-31+g(d,p)
****
-Na 0
6-31g(d,p)
****
-O 0
6-31+g(d,p)
****


