%chk=lowest10_c2_a1_speciation3_speciation3_speciationDFT39_rank10_E237.34.chk
%nprocshared=20
%mem=40GB
#p opt=loose PM7/gen scf=xqc 

lowest10_c2_a1_speciation3_speciation3_speciationDFT39_rank10_E237.34 DFT input

0 1
Na      0.144390000000000     -0.276130000000000      0.201630000000000
C       2.491810000000000      0.254420000000000     -1.812700000000000
C       3.200360000000000     -1.356620000000000     -0.252860000000000
O       2.276020000000000     -0.331320000000000     -0.545020000000000
C       1.721590000000000     -0.481900000000000     -2.905390000000000
C       4.409000000000000     -0.784520000000000      0.476870000000000
H       2.106800000000000      1.294000000000000     -1.766990000000000
H       3.570260000000000      0.335550000000000     -2.067770000000000
H       2.695950000000000     -2.084250000000000      0.419700000000000
H       3.507970000000000     -1.931930000000000     -1.153960000000000
H       4.083670000000000     -0.261490000000000      1.401610000000000
H       5.101190000000000     -1.606630000000000      0.752410000000000
H       4.946380000000000     -0.065080000000000     -0.174170000000000
H       0.639100000000000     -0.512320000000000     -2.663470000000000
H       1.853150000000000      0.052950000000000     -3.869550000000000
H       2.096620000000000     -1.519000000000000     -3.020590000000000
C      -2.176390000000000     -0.647440000000000      2.365060000000000
C      -0.094600000000000     -0.491550000000000      3.428110000000000
O      -0.775940000000000     -0.738600000000000      2.220000000000000
C      -2.664970000000000      0.791550000000000      2.212240000000000
C       1.401830000000000     -0.458770000000000      3.131690000000000
H      -2.625790000000000     -1.240090000000000      1.540110000000000
H      -2.537200000000000     -1.106300000000000      3.311600000000000
H      -0.373530000000000      0.492300000000000      3.862390000000000
H      -0.291280000000000     -1.307370000000000      4.156430000000000
H       1.634580000000000      0.347980000000000      2.403530000000000
H       1.975060000000000     -0.273070000000000      4.063600000000000
H       1.725750000000000     -1.428710000000000      2.698000000000000
H      -2.309860000000000      1.218550000000000      1.251740000000000
H      -3.774930000000000      0.807510000000000      2.218600000000000
H      -2.300280000000000      1.424340000000000      3.044690000000000
C      -1.488590000000000     -2.763520000000000     -0.861110000000000
C      -2.314150000000000     -0.918210000000000     -2.060320000000000
O      -1.468100000000000     -1.359280000000000     -1.019890000000000
C      -0.393340000000000     -3.420800000000000     -1.694710000000000
C      -3.700380000000000     -0.588070000000000     -1.519280000000000
H      -1.286020000000000     -2.983360000000000      0.209030000000000
H      -2.483390000000000     -3.208030000000000     -1.086930000000000
H      -1.873190000000000      0.009900000000000     -2.479680000000000
H      -2.372860000000000     -1.639240000000000     -2.905800000000000
H      -3.626730000000000      0.169720000000000     -0.710830000000000
H      -4.329230000000000     -0.177840000000000     -2.336640000000000
H      -4.185050000000000     -1.500250000000000     -1.115280000000000
H       0.600920000000000     -3.013780000000000     -1.412070000000000
H      -0.394830000000000     -4.515690000000000     -1.509680000000000
H      -0.566180000000000     -3.241160000000000     -2.775690000000000
C      -1.038130000000000      2.699440000000000     -1.058110000000000
C       0.804860000000000      2.828720000000000      0.394680000000000
O      -0.109130000000000      1.981340000000000     -0.273100000000000
C      -0.517860000000000      2.887970000000000     -2.479350000000000
C       0.277140000000000      3.225130000000000      1.768990000000000
H      -1.969740000000000      2.097900000000000     -1.106160000000000
H      -1.324570000000000      3.673720000000000     -0.604180000000000
H       1.747350000000000      2.258610000000000      0.540350000000000
H       1.075620000000000      3.726880000000000     -0.203320000000000
H       0.067770000000000      2.319970000000000      2.372480000000000
H       1.039650000000000      3.834890000000000      2.297360000000000
H      -0.654990000000000      3.818050000000000      1.674660000000000
H      -0.284280000000000      1.904530000000000     -2.938560000000000
H      -1.293770000000000      3.391800000000000     -3.092810000000000
H       0.398850000000000      3.512180000000000     -2.478650000000000
Na     -3.090820000000000      2.586290000000000      9.277609999999999
C      -3.800680000000000      0.530000000000000      6.952820000000000
C      -3.627640000000000      2.688360000000000      6.045920000000000
O      -3.826120000000000      1.918440000000000      7.212230000000000
C      -2.382060000000000     -0.020450000000000      7.058210000000000
C      -4.971050000000000      3.062690000000000      5.436720000000000
H      -4.421370000000000      0.035510000000000      7.728980000000000
H      -4.260990000000000      0.267950000000000      5.974460000000000
H      -3.097750000000000      3.620260000000000      6.339520000000000
H      -2.975310000000000      2.186820000000000      5.296970000000000
H      -5.585480000000000      3.607670000000000      6.185080000000000
H      -4.812780000000000      3.714970000000000      4.553360000000000
H      -5.514400000000000      2.148920000000000      5.119240000000000
H      -1.955150000000000      0.211950000000000      8.055970000000000
H      -2.403790000000000     -1.122430000000000      6.926970000000000
H      -1.731730000000000      0.418830000000000      6.274450000000000
C      -2.595200000000000      4.668450000000000     11.724230000000000
C      -4.198500000000000      5.501530000000000     10.241560000000000
O      -3.148420000000000      4.580270000000000     10.428760000000000
C      -3.357670000000000      3.792960000000000     12.715760000000000
C      -4.847280000000000      5.222750000000000      8.890599999999999
H      -1.556180000000000      4.280700000000000     11.662559999999999
H      -2.514910000000000      5.718100000000000     12.085440000000000
H      -4.984220000000000      5.390110000000000     11.019700000000000
H      -3.803720000000000      6.540670000000000     10.233800000000000
H      -5.251500000000000      4.188000000000000      8.863140000000000
H      -5.679150000000000      5.935790000000000      8.713190000000001
H      -4.098310000000000      5.332970000000000      8.077809999999999
H      -3.405050000000000      2.747810000000000     12.346259999999999
H      -2.830770000000000      3.801730000000000     13.691800000000001
H      -4.389020000000000      4.170000000000000     12.869040000000000
C       0.080570000000000      2.883790000000000      9.387280000000001
C      -0.366240000000000      0.927960000000000     10.603970000000000
O      -0.915300000000000      2.048580000000000      9.942920000000001
C       0.362230000000000      2.492140000000000      7.941230000000000
C      -0.173170000000000      1.231140000000000     12.084050000000000
H      -0.306490000000000      3.924980000000000      9.398680000000001
H       1.019560000000000      2.896470000000000      9.986100000000000
H      -1.088450000000000      0.090770000000000     10.506309999999999
H       0.582260000000000      0.570650000000000     10.142230000000000
H      -1.138700000000000      1.538510000000000     12.538060000000000
H       0.196380000000000      0.323460000000000     12.604710000000001
H       0.564490000000000      2.049250000000000     12.216469999999999
H      -0.573000000000000      2.543350000000000      7.344200000000000
H       1.104780000000000      3.192570000000000      7.504750000000000
H       0.769470000000000      1.461130000000000      7.891210000000000
C      -4.210400000000000     -0.031800000000000     11.321850000000000
C      -5.853330000000000      1.163440000000000     10.149620000000001
O      -4.470730000000000      1.011740000000000     10.405310000000000
C      -3.982120000000000     -1.347060000000000     10.586340000000000
C      -6.472780000000000      2.164640000000000     11.117130000000000
H      -3.282820000000000      0.227940000000000     11.873559999999999
H      -5.006180000000000     -0.141000000000000     12.092940000000000
H      -5.965450000000000      1.560090000000000      9.118110000000000
H      -6.406890000000000      0.197540000000000     10.170629999999999
H      -5.945510000000000      3.136700000000000     11.044549999999999
H      -7.541850000000000      2.317390000000000     10.860500000000000
H      -6.402610000000000      1.793990000000000     12.160209999999999
H      -3.153270000000000     -1.237310000000000      9.856170000000001
H      -3.714670000000000     -2.138700000000000     11.316900000000000
H      -4.900920000000000     -1.653790000000000     10.045560000000000
Mg     -5.537400000000000      4.112250000000000     19.964440000000000
H      -4.437880000000000      1.641760000000000     20.818200000000001
C      -6.590720000000000      1.413870000000000     20.479389999999999
C      -5.385770000000000      2.192860000000000     20.989319999999999
C      -6.411240000000000      1.118840000000000     18.993410000000001
H      -6.730110000000000      0.464970000000000     21.039330000000000
H      -7.489190000000000      2.048350000000000     20.632390000000001
H      -6.121670000000000      2.042610000000000     18.474299999999999
H      -5.587820000000000      0.386550000000000     18.857040000000001
C      -7.697040000000000      0.600010000000000     18.361509999999999
H      -5.506460000000000      2.382500000000000     22.078320000000001
H      -8.020899999999999     -0.339740000000000     18.853290000000001
H      -8.502039999999999      1.362220000000000     18.455729999999999
H      -7.524380000000000      0.408630000000000     17.281510000000001
C     -10.596360000000001      5.703860000000000     19.444890000000001
C      -9.741860000000001      4.966910000000000     18.655960000000000
C      -8.650470000000000      4.635570000000000     19.436950000000000
C      -8.827280000000000      5.148990000000000     20.651230000000002
N     -10.058389999999999      5.832420000000000     20.736870000000000
C      -7.858090000000000      5.023060000000000     21.791670000000000
N      -6.698700000000000      5.907080000000000     21.568330000000000
C      -6.585750000000000      7.061950000000000     22.488140000000001
H      -9.902939999999999      4.706480000000000     17.617280000000001
H     -11.540929999999999      6.123030000000000     19.126670000000001
H      -7.803670000000000      4.052080000000000     19.130790000000001
H      -7.520040000000000      3.973230000000000     21.876880000000000
H      -8.378700000000000      5.230610000000000     22.742010000000001
C      -6.158020000000000      6.560190000000000     23.878810000000001
C      -5.500390000000000      8.021940000000001     21.963280000000001
C      -7.896240000000000      7.880290000000000     22.549990000000001
H      -5.201460000000000      5.997570000000000     23.799650000000000
H      -6.008860000000000      7.409570000000000     24.576329999999999
H      -6.912820000000000      5.876870000000000     24.315700000000000
H      -5.754800000000000      8.376310000000000     20.946000000000002
H      -5.406460000000000      8.912100000000001     22.620529999999999
H      -4.504520000000000      7.555240000000000     21.933720000000001
H      -8.175290000000000      8.223929999999999     21.530750000000001
H      -8.747949999999999      7.313480000000000     22.967780000000001
H      -7.759840000000000      8.771900000000000     23.197270000000000
Mg     -6.556540000000000      6.890900000000000     19.205680000000001
H      -8.119780000000000      8.237660000000000     17.329120000000000
C      -7.522560000000000      9.804150000000000     18.744199999999999
C      -7.926620000000000      8.364450000000000     18.413419999999999
C      -6.315230000000000     10.288560000000000     17.933460000000000
H      -8.382220000000000     10.457140000000001     18.482930000000000
H      -7.332390000000000      9.914140000000000     19.834730000000000
H      -6.522930000000000     10.133740000000000     16.852630000000001
H      -6.181220000000000     11.377050000000001     18.110119999999998
C      -5.011610000000000      9.598380000000001     18.314029999999999
H      -8.869280000000000      8.143890000000001     18.960390000000000
H      -4.750920000000000      9.815180000000000     19.370270000000001
H      -5.096300000000000      8.510579999999999     18.176700000000000
H      -4.192420000000000      9.971190000000000     17.664359999999999
C      -1.384430000000000      3.863680000000000     20.413750000000000
C      -2.012340000000000      4.211180000000000     21.593760000000000
C      -2.984890000000000      5.130020000000000     21.265319999999999
C      -2.922420000000000      5.297250000000000     19.948319999999999
N      -1.901670000000000      4.490920000000000     19.420040000000000
C      -3.758030000000000      6.251870000000000     19.134270000000001
N      -4.989090000000000      5.627280000000000     18.616029999999999
C      -5.004640000000000      5.245990000000000     17.175760000000000
H      -1.780260000000000      3.849410000000000     22.587990000000001
H      -0.566260000000000      3.168430000000000     20.313839999999999
H      -3.650110000000000      5.608930000000000     21.958500000000001
H      -3.136640000000000      6.759810000000000     18.376120000000000
H      -4.069510000000000      7.067360000000000     19.806680000000000
C      -3.921770000000000      4.188920000000000     16.896300000000000
C      -6.377090000000000      4.656790000000000     16.807659999999998
C      -4.812240000000000      6.470940000000000     16.252050000000001
H      -4.066770000000000      3.305540000000000     17.555930000000000
H      -3.964480000000000      3.850150000000000     15.841080000000000
H      -2.910050000000000      4.604300000000000     17.071860000000001
H      -7.188820000000000      5.388200000000000     17.006029999999999
H      -6.412470000000000      4.383400000000000     15.730070000000000
H      -6.587660000000000      3.740180000000000     17.363910000000001
H      -5.626490000000000      7.207160000000000     16.418350000000000
H      -3.838280000000000      6.975170000000000     16.386340000000001
H      -4.859590000000000      6.158440000000000     15.186340000000000

-C 0
6-31g(d,p)
****
-H 0
6-31g(d,p)
****
-Mg 0
6-31g(d,p)
****
-N 0
6-31+g(d,p)
****
-Na 0
6-31g(d,p)
****
-O 0
6-31+g(d,p)
****


