%chk=lowest10_c2_a1_speciation0_speciation3_speciationDFT45_rank10_E182.73.chk
%nprocshared=20
%mem=40GB
#p opt=loose PM7/gen scf=xqc 

lowest10_c2_a1_speciation0_speciation3_speciationDFT45_rank10_E182.73 DFT input

0 1
Na      0.144850000000000     -0.049780000000000     -0.355220000000000
C       2.492200000000000      1.428650000000000      1.110630000000000
C       3.200680000000000      0.883320000000000     -1.064480000000000
O       2.276510000000000      0.623550000000000     -0.030380000000000
C       1.721740000000000      2.742950000000000      1.019110000000000
C       4.409200000000000     -0.034820000000000     -0.934080000000000
H       2.107290000000000      0.869270000000000      1.988130000000000
H       3.570630000000000      1.609230000000000      1.308340000000000
H       2.696150000000000      0.664890000000000     -2.030880000000000
H       3.508410000000000      1.951340000000000     -1.112050000000000
H       4.083680000000000     -1.097120000000000     -0.943520000000000
H       5.101340000000000      0.137590000000000     -1.783860000000000
H       4.946620000000000      0.169160000000000      0.014510000000000
H       0.639280000000000      2.548380000000000      0.871830000000000
H       1.853210000000000      3.310690000000000      1.964280000000000
H       2.096620000000000      3.361190000000000      0.178430000000000
C      -2.175120000000000     -1.736690000000000     -1.758680000000000
C      -0.093350000000000     -2.734930000000000     -2.154980000000000
O      -0.774640000000000     -1.564860000000000     -1.766040000000000
C      -2.663520000000000     -2.325950000000000     -0.436530000000000
C       1.403020000000000     -2.496030000000000     -1.978940000000000
H      -2.625010000000000     -0.726130000000000     -1.858430000000000
H      -2.536270000000000     -2.325580000000000     -2.630050000000000
H      -0.371600000000000     -3.600720000000000     -1.517890000000000
H      -0.290290000000000     -2.959220000000000     -3.225340000000000
H       1.635790000000000     -2.268720000000000     -0.916280000000000
H       1.974870000000000     -3.397080000000000     -2.283620000000000
H       1.727420000000000     -1.636280000000000     -2.602840000000000
H      -2.307670000000000     -1.709010000000000      0.414200000000000
H      -3.773550000000000     -2.336850000000000     -0.425420000000000
H      -2.301870000000000     -3.365560000000000     -0.306720000000000
C      -1.488760000000000      2.113660000000000     -1.978950000000000
C      -2.314310000000000      2.229560000000000      0.218690000000000
O      -1.468260000000000      1.549020000000000     -0.683470000000000
C      -0.393390000000000      3.164040000000000     -2.131300000000000
C      -3.700440000000000      1.595800000000000      0.234140000000000
H      -1.286310000000000      1.296830000000000     -2.704470000000000
H      -2.483520000000000      2.531620000000000     -2.250960000000000
H      -1.873320000000000      2.128820000000000      1.232150000000000
H      -2.373140000000000      3.322260000000000      0.016880000000000
H      -3.626590000000000      0.516800000000000      0.486250000000000
H      -4.329350000000000      2.098530000000000      0.998050000000000
H      -4.185110000000000      1.701880000000000     -0.757860000000000
H       0.600780000000000      2.715550000000000     -1.920080000000000
H      -0.394800000000000      3.551280000000000     -3.172000000000000
H      -0.566140000000000      4.010350000000000     -1.435180000000000
C      -1.038030000000000     -0.448410000000000      2.850940000000000
C       0.804610000000000     -1.772200000000000      2.236800000000000
O      -0.109220000000000     -0.770040000000000      1.836550000000000
C      -0.517630000000000      0.688550000000000      3.724390000000000
C       0.276990000000000     -3.161110000000000      1.893190000000000
H      -1.969620000000000     -0.105910000000000      2.354000000000000
H      -1.324570000000000     -1.328350000000000      3.468090000000000
H       1.747160000000000     -1.613080000000000      1.670340000000000
H       1.075360000000000     -1.702910000000000      3.313580000000000
H       0.067820000000000     -3.231120000000000      0.807550000000000
H       1.039110000000000     -3.924060000000000      2.157060000000000
H      -0.655220000000000     -3.375910000000000      2.453640000000000
H      -0.284200000000000      1.577850000000000      3.102090000000000
H      -1.293490000000000      0.968160000000000      4.467450000000000
H       0.399110000000000      0.376090000000000      4.264680000000000
Na      4.611250000000000    -16.637090000000001     -4.880280000000000
C       2.694900000000000    -14.973520000000001     -2.439850000000000
C       1.540710000000000    -14.973120000000000     -4.439700000000000
O       2.723880000000000    -15.377030000000000     -3.789540000000000
C       3.985790000000000    -15.428459999999999     -1.774760000000000
C       1.610540000000000    -15.429980000000000     -5.890000000000000
H       2.637480000000000    -13.864300000000000     -2.358050000000000
H       1.845430000000000    -15.451380000000000     -1.901740000000000
H       0.648190000000000    -15.447839999999999     -3.971970000000000
H       1.442510000000000    -13.863630000000001     -4.432140000000000
H       1.706690000000000    -16.536100000000001     -5.934940000000000
H       0.690320000000000    -15.125679999999999     -6.431070000000000
H       2.491260000000000    -14.972429999999999     -6.389660000000000
H       4.858540000000000    -14.970219999999999     -2.287520000000000
H       3.992870000000000    -15.123670000000001     -0.707410000000000
H       4.073720000000000    -16.534549999999999     -1.835390000000000
Mg     -2.920690000000000    -12.025020000000000      0.161080000000000
H      -5.335400000000000    -11.505610000000001     -2.102260000000000
C      -5.740550000000000    -13.199560000000000     -0.757800000000000
C      -4.798190000000000    -12.281340000000000     -1.521720000000000
C      -6.604380000000000    -12.398370000000000      0.218920000000000
H      -6.383460000000000    -13.732860000000001     -1.488480000000000
H      -5.139100000000000    -13.945600000000001     -0.193440000000000
H      -5.954790000000000    -11.879149999999999      0.952840000000000
H      -7.189700000000000    -11.637160000000000     -0.339990000000000
C      -7.569780000000000    -13.306139999999999      0.973810000000000
H      -4.116310000000000    -12.866849999999999     -2.173800000000000
H      -8.230300000000000    -13.840140000000000      0.258140000000000
H      -7.010070000000000    -14.049700000000000      1.580290000000000
H      -8.200989999999999    -12.695370000000000      1.653260000000000
C      -4.117790000000000    -13.375439999999999      2.723250000000000
C      -4.432730000000000    -13.094270000000000      4.040820000000000
C      -4.039950000000000    -11.791190000000000      4.274250000000000
C      -3.502710000000000    -11.343600000000000      3.087820000000000
N      -3.546750000000000    -12.300610000000001      2.151280000000000
C      -2.936950000000000    -10.010090000000000      2.798420000000000
N      -3.433060000000000     -9.574730000000001      1.486800000000000
C      -4.516920000000000     -8.590719999999999      1.453350000000000
H      -4.904710000000000    -13.761749999999999      4.748820000000000
H      -4.314590000000000    -14.305380000000000      2.208230000000000
H      -4.131740000000000    -11.238110000000001      5.200110000000000
H      -1.857940000000000    -10.190480000000001      2.700250000000000
H      -3.065370000000000     -9.272980000000000      3.616920000000000
C      -3.938640000000000     -7.189870000000000      1.718960000000000
C      -5.112800000000000     -8.631819999999999      0.036800000000000
C      -5.634410000000000     -8.935610000000000      2.454740000000000
H      -3.156260000000000     -6.945120000000000      0.965380000000000
H      -4.736230000000000     -6.420300000000000      1.661020000000000
H      -3.472000000000000     -7.135860000000000      2.723590000000000
H      -5.509490000000000     -9.643440000000000     -0.189460000000000
H      -5.930290000000000     -7.890740000000000     -0.077690000000000
H      -4.344300000000000     -8.407950000000000     -0.721590000000000
H      -6.006220000000000     -9.963960000000000      2.267080000000000
H      -5.278310000000000     -8.879239999999999      3.502370000000000
H      -6.480960000000000     -8.227790000000001      2.344570000000000
Mg     -1.082530000000000     -9.285290000000000      0.814600000000000
H       1.300390000000000     -8.010050000000000      1.578590000000000
C      -0.051080000000000     -7.765090000000000      3.297550000000000
C       0.223930000000000     -7.856840000000000      1.791900000000000
C       0.515300000000000     -8.964650000000001      4.065890000000000
H       0.431370000000000     -6.845200000000000      3.691370000000000
H      -1.147500000000000     -7.678110000000000      3.458800000000000
H       0.082190000000000     -9.908840000000000      3.701020000000000
H       1.615770000000000     -9.000590000000001      3.917760000000000
C       0.217470000000000     -8.865750000000000      5.559440000000000
H      -0.097840000000000     -6.898670000000000      1.329110000000000
H       0.643770000000000     -7.931340000000000      5.981120000000000
H      -0.879600000000000     -8.882289999999999      5.736220000000000
H       0.672250000000000     -9.732830000000000      6.084500000000000
C       0.717340000000000     -7.608760000000000     -2.097370000000000
C      -0.550950000000000     -7.076130000000000     -1.970180000000000
C      -1.413360000000000     -8.143230000000001     -1.846980000000000
C      -0.671160000000000     -9.241619999999999     -1.879310000000000
N       0.681150000000000     -8.894360000000001     -2.037970000000000
C      -1.199180000000000    -10.646830000000000     -1.714190000000000
N      -1.101340000000000    -11.069140000000001     -0.301570000000000
C      -0.071200000000000    -12.074800000000000      0.024700000000000
H      -0.820630000000000     -6.027240000000000     -1.939020000000000
H       1.627850000000000     -7.043070000000000     -2.220560000000000
H      -2.475850000000000     -8.092070000000000     -1.713880000000000
H      -0.735720000000000    -11.337550000000000     -2.447360000000000
H      -2.279340000000000    -10.623970000000000     -1.970190000000000
C       1.329860000000000    -11.619260000000001     -0.414090000000000
C      -0.068360000000000    -12.263420000000000      1.545520000000000
C      -0.429030000000000    -13.436800000000000     -0.620250000000000
H       1.577590000000000    -10.643100000000000      0.054670000000000
H       2.088530000000000    -12.368240000000000     -0.101440000000000
H       1.395300000000000    -11.516880000000000     -1.516000000000000
H      -1.062770000000000    -12.587020000000001      1.907060000000000
H       0.669590000000000    -13.032629999999999      1.853800000000000
H       0.192900000000000    -11.310269999999999      2.035660000000000
H      -1.425590000000000    -13.789849999999999     -0.277380000000000
H      -0.452230000000000    -13.389970000000000     -1.726630000000000
H       0.312070000000000    -14.210100000000001     -0.331620000000000

-C 0
6-31g(d,p)
****
-H 0
6-31g(d,p)
****
-Mg 0
6-31g(d,p)
****
-N 0
6-31+g(d,p)
****
-Na 0
6-31g(d,p)
****
-O 0
6-31+g(d,p)
****


