%chk=speciationDFT18.chk
%nprocshared=32
%mem=64GB
#p opt wb97xd/gen scf=xqc freq 

 speciation study

0 1
C         -1.13156       -1.52155        0.69793
C         -2.52001       -1.51840       -0.03530
C         -3.40216       -0.39492        0.49169
C         -2.71114        0.88867        0.13149
C         -1.23420        0.97616        0.65848
N         -0.34387       -0.24002        0.41569
C         -1.34365       -1.82819        2.19420
C         -0.35341       -2.71886        0.19747
C         -1.31214        1.40038        2.11408
C         -0.59842        2.09003       -0.08276
H         -0.02046       -2.56728       -0.81696
H          0.50703       -2.80678        0.82464
H         -0.93124       -3.65223        0.26662
H         -1.83391       -2.81805        2.31695
H         -0.36840       -1.86914        2.72749
H         -1.99272       -1.16743        2.75946
H          0.42969        1.81408       -0.26804
H         -0.81543        3.12372        0.26531
H         -0.98512        2.03645       -1.05797
H         -0.31379        1.35444        2.46739
H         -1.66575        2.45502        2.23504
H         -1.97073        0.82675        2.75758
H         -2.72622        0.88118       -0.96829
H         -4.38797       -0.42057       -0.03062
H         -3.03989       -2.48698        0.13188
H         -2.36977       -1.40268       -1.12563
H         -3.61462       -0.46682        1.56239
H         -3.31048        1.77391        0.45918
Li         1.03094        0.21738       -1.39979
C          2.12706       -2.04336       -3.46731
C          1.56192       -2.01185       -4.87518
C          0.09708       -2.29179       -4.67071
C         -0.03934       -2.20699       -3.17327
O          1.11450       -1.54069       -2.60467
H          2.32966       -3.12148       -3.17412
H          3.08526       -1.50495       -3.38287
H          1.63639       -0.95261       -5.20291
H          2.05792       -2.65232       -5.64088
H         -1.01589       -1.79230       -2.85378
H         -0.03662       -3.24787       -2.79845
H         -0.50191       -1.52765       -5.21871
H         -0.23255       -3.30612       -5.02493
C          0.35154        2.93344       -3.15955
C         -1.02993        3.55876       -3.08916
C         -1.94372        2.39416       -3.40097
C         -0.98304        1.19534       -3.48172
O          0.21597        1.55242       -2.81480
H          0.72679        2.99736       -4.20859
H          1.02677        3.51026       -2.50935
H         -1.21073        3.87292       -2.03607
H         -1.18900        4.48105       -3.68301
H         -1.46076        0.29541       -3.06117
H         -0.73028        1.00258       -4.54899
H         -2.65459        2.30794       -2.55482
H         -2.55799        2.50254       -4.31739
C          3.42379        2.63263       -0.66594
C          2.40391        3.31079        0.20976
C          2.38406        2.43904        1.53970
C          3.57944        1.33827        1.76007
C          4.07285        0.59683        0.42390
N          3.09785        1.14871       -0.48625
C          4.72662        3.41270       -0.09043
C          3.55698        2.85837       -2.17667
C          5.66518        0.80859        0.35928
C          4.01215       -0.78749       -0.17550
H          4.50841        2.37712       -2.51063
H          2.78274        2.33153       -2.74782
H          3.60696        3.93283       -2.45211
H          5.74903        3.11045       -0.34672
H          4.72299        4.44497       -0.50879
H          4.71345        3.65410        0.99459
H          4.62940       -1.46482        0.37935
H          2.99395       -1.16887       -0.40860
H          4.49615       -0.78042       -1.19313
H          6.08568        1.46746        1.14333
H          6.23176       -0.10847        0.63736
H          6.03571        1.05131       -0.65611
H          4.36715        1.99982        2.15485
H          2.25587        3.14038        2.37934
H          2.61727        4.38564        0.40338
H          1.45429        3.47724       -0.30116
H          1.50293        1.82137        1.46936
H          3.55516        0.67061        2.62473
Li         1.75157       -0.14177        1.24556
C          1.53078       -0.60914        4.36198
C          0.36896       -0.36584        5.31620
C          0.15173        1.12057        5.21144
C          1.24979        1.55278        4.25318
O          1.49091        0.42286        3.39556
H          2.49773       -0.52268        4.93166
H          1.44564       -1.61922        3.95888
H         -0.53448       -0.86822        4.90460
H          0.55782       -0.74473        6.34297
H          0.89383        2.48232        3.76972
H          2.18212        1.80464        4.80836
H         -0.83249        1.26196        4.71692
H          0.10945        1.69020        6.16184
C          3.57877       -2.32232        2.69794
C          4.76849       -3.16118        2.22749
C          4.23398       -3.86932        1.00057
C          2.78761       -3.38051        0.91820
O          2.68741       -2.12193        1.60722
H          3.04720       -2.93299        3.45992
H          3.93437       -1.38846        3.16621
H          5.61837       -2.50905        1.92603
H          5.14535       -3.83077        3.02647
H          2.45826       -3.35076       -0.14195
H          2.15604       -4.11841        1.46548
H          4.80064       -3.51893        0.10834
H          4.34340       -4.97348        0.99733

-H 0
6-31g(d,p)
****
-Li 0
6-31g(d,p)
****
-C 0
6-31g(d,p)
****
-N 0
6-31+g(d,p)
****
-O 0
6-31+g(d,p)
****


