%chk=speciationDFT105.chk
%nprocshared=32
%mem=64GB
#p opt wb97xd/gen scf=xqc freq 

 speciation study

0 1
C          0.76444        1.26531       -0.32864
C          1.46060       -0.00344        0.22551
C          0.77604       -1.28519       -0.25609
C         -0.68352       -1.26223        0.20836
C         -1.44407       -0.03715       -0.35535
N         -0.69667        1.21430       -0.08457
C          1.30925        2.48845        0.43285
C          1.09219        1.49186       -1.82217
C         -1.76190       -0.21110       -1.85916
C         -2.79732        0.07762        0.37081
H          0.86218        0.63734       -2.46902
H          0.55149        2.38480       -2.20547
H          2.18222        1.66422       -1.95148
H          2.40774        2.58637        0.29778
H          0.82414        3.42199        0.06963
H          1.09788        2.39727        1.51996
H         -2.64426        0.21584        1.46218
H         -3.36863        0.95261       -0.00828
H         -3.41143       -0.83694        0.21668
H         -2.44041       -1.07899       -2.00677
H         -2.26538        0.69631       -2.25684
H         -0.88725       -0.43105       -2.48315
H         -1.19914       -2.20710       -0.07205
H          0.84806       -1.39004       -1.35683
H          2.53921       -0.00764       -0.04431
H          1.39639        0.00029        1.33724
H          1.28833       -2.16252        0.19657
H         -0.67277       -1.20711        1.32066
Li        -1.62142        2.79426       -0.75789

-H 0
6-31g(d,p)
****
-Li 0
6-31g(d,p)
****
-C 0
6-31g(d,p)
****
-N 0
6-31+g(d,p)
****


