%chk=speciation21.chk
%nprocshared=16
%mem=32GB
#p opt=loose PM7 scf=xqc 

 speciation study

-2 1
Mg         1.22449        1.73690       -0.06715
H          0.53280        3.87075        1.36104
C          2.62062        4.15151        1.77779
C          1.41790        3.22949        1.54639
C          2.87509        4.99249        0.53097
H          2.40534        4.81775        2.64305
H          3.52575        3.57944        2.05687
H          3.07087        4.31918       -0.33044
H          1.97059        5.60279        0.31738
C          4.06739        5.92414        0.71518
H          1.22168        2.71107        2.50514
H          3.88900        6.62345        1.55944
H          4.98939        5.33727        0.91231
H          4.21154        6.51492       -0.21374
C         -1.70774        1.11672        0.47773
C         -2.34694       -0.10869        0.53808
C         -1.37694       -1.07374        0.31298
C         -0.18761       -0.39612        0.13896
N         -0.39702        0.93074        0.24575
C          1.17567       -0.99526       -0.11752
N          2.24500        0.03300       -0.00400
C          3.23869       -0.21321        1.07323
H         -3.39762       -0.28091        0.72365
H         -2.17061        2.08541        0.59283
H         -1.52442       -2.14540        0.29283
H          1.18634       -1.44804       -1.13066
H          1.29992       -1.81533        0.60947
C          3.96926       -1.56948        0.90336
C          4.30653        0.87667        0.94507
C          2.58532       -0.17223        2.47043
H          4.45228       -1.63041       -0.09208
H          4.75838       -1.67823        1.68009
H          3.30051       -2.44447        1.01589
H          3.82932        1.85965        0.93879
H          5.05087        0.81837        1.76884
H          4.84497        0.78519       -0.02305
H          2.03321        0.76153        2.62387
H          1.87210       -1.00939        2.61575
H          3.35659       -0.25328        3.26637
Mg         3.38218        0.08335       -1.63630
H          2.31630        2.65105       -2.31849
C          0.30441        3.27919       -2.83765
C          1.27659        2.29634       -2.16210
C          0.60568        3.42048       -4.34328
H         -0.73532        2.90362       -2.70627
H          0.39215        4.27134       -2.34624
H          1.64413        3.79146       -4.48625
H          0.51632        2.43130       -4.84629
C         -0.35016        4.39572       -5.03464
H          1.15815        1.30917       -2.66105
H         -1.39926        4.04043       -4.95564
H         -0.27000        5.40667       -4.58300
H         -0.09193        4.47691       -6.11521
C          4.50936        1.08489       -4.22195
C          5.42727        0.78216       -5.20857
C          6.02432       -0.40434       -4.84063
C          5.43289       -0.77562       -3.64952
N          4.51935        0.13370       -3.26860
C          5.70329       -2.03020       -2.89181
N          4.45956       -2.78380       -2.65677
C          3.74994       -3.39380       -3.80892
H          5.62970        1.35663       -6.10234
H          3.86132        1.95032       -4.20802
H          6.78274       -0.94676       -5.38938
H          6.47354       -2.65466       -3.38722
H          6.11634       -1.73819       -1.90240
C          4.66595       -4.35128       -4.59657
C          2.57536       -4.19418       -3.22636
C          3.14825       -2.33736       -4.76184
H          5.06813       -5.14093       -3.92778
H          4.10124       -4.83812       -5.42119
H          5.51837       -3.80872       -5.05628
H          1.91234       -3.52621       -2.63395
H          1.97066       -4.65373       -4.03852
H          2.94075       -5.00367       -2.55972
H          2.54314       -1.59890       -4.19081
H          3.91976       -1.81237       -5.34775
H          2.49523       -2.81835       -5.51785

