%chk=speciation118.chk
%nprocshared=16
%mem=32GB
#p opt=loose PM7 scf=xqc 

 speciation study

-2 1
Mg         0.64920        0.27048        0.54333
C          2.81445       -1.21248        1.92436
C          3.20918        1.10731        1.68879
O          2.54273       -0.03931        1.15443
C          2.57941       -1.09446        3.44320
C          4.73986        1.03777        1.50624
H          2.18443       -2.02066        1.53542
H          3.84462       -1.57922        1.72665
H          2.82636        2.01243        1.18403
H          2.95751        1.30732        2.74283
H          5.02265        0.90186        0.44164
H          5.20739        1.97305        1.87867
H          5.17857        0.19975        2.08623
H          1.56292       -0.71889        3.65058
H          2.69892       -2.08487        3.92582
H          3.32369       -0.42583        3.92578
H         -1.43195        1.12189        2.14069
C          0.10740        2.22494        3.21407
C         -0.39579        0.94308        2.47076
C         -0.94436        2.77631        4.21102
H          1.05898        2.03306        3.74630
H          0.33586        3.02794        2.49041
H         -1.92016        2.91591        3.69410
H         -1.08842        2.05697        5.04494
C         -0.55422        4.14699        4.78312
H         -0.45814        0.12484        3.21445
H          0.41588        4.10171        5.31878
H         -0.48702        4.90261        3.96934
H         -1.33527        4.49659        5.49527
C          1.38137       -5.55786       -1.17098
C          0.94862       -6.21496       -0.04105
C          0.27220       -5.28338        0.72356
C          0.32016       -4.09066        0.02359
N          0.97228       -4.27578       -1.13421
C         -0.28312       -2.76884        0.48754
N         -0.17600       -1.63261       -0.49634
C         -1.54978       -1.36377       -1.08986
H          1.12468       -7.25377        0.21078
H          1.97234       -5.99437       -1.96029
H         -0.19867       -5.45794        1.68186
H          0.14064       -2.46919        1.45670
H         -1.32482       -3.03665        0.72630
C         -2.68395       -1.01141       -0.07037
C         -1.39592       -0.17861       -2.02027
C         -2.07894       -2.56056       -1.88977
H         -2.39701       -0.21175        0.62366
H         -3.60274       -0.69431       -0.61682
H         -3.02897       -1.87479        0.53582
H         -0.61182       -0.33606       -2.78559
H         -2.35375        0.11458       -2.50555
H         -1.10619        0.62890       -1.37109
H         -1.22306       -3.06056       -2.29564
H         -2.55435       -3.33871       -1.26192
H         -2.81881       -2.25282       -2.66786
Mg         1.05513       -2.68238       -2.05213
C         -0.44446        2.91877       -0.88421
C          1.46598        2.05050       -1.78587
O          0.63540        1.99595       -0.62891
C         -1.56597        2.90337        0.14070
C          2.75866        1.29900       -1.60679
H         -0.04452        3.95640       -0.86506
H         -0.93013        2.74363       -1.87558
H          0.94243        1.64436       -2.68152
H          1.78000        3.10465       -1.98268
H          2.54419        0.22512       -1.43483
H          3.40079        1.44766       -2.49459
H          3.34747        1.73252       -0.80306
H         -1.18039        3.15423        1.12363
H         -2.30387        3.69725       -0.09149
H         -2.10307        1.94091        0.15889
H         -0.84919       -3.40069       -4.21602
C          0.78245       -4.08511       -5.26752
C          0.22357       -3.12255       -4.20279
C          0.79898       -5.59433       -4.92943
H          0.16659       -3.96098       -6.18939
H          1.81887       -3.77777       -5.50867
H          1.21796       -6.11465       -5.81847
H          1.48043       -5.78471       -4.08439
C         -0.55994       -6.24742       -4.63800
H          0.27495       -2.09534       -4.62043
H         -0.99328       -5.88502       -3.68264
H         -1.27873       -6.07601       -5.46693
H         -0.41475       -7.34841       -4.54571
C          4.05063       -3.05382       -1.35120
C          5.34703       -2.68595       -1.65719
C          5.26236       -1.77487       -2.66974
C          3.91389       -1.64877       -2.97415
N          3.15790       -2.41604       -2.13343
C          3.35543       -0.87063       -4.10585
N          4.44437       -0.31705       -4.93300
C          4.00933        0.56990       -6.02938
H          6.26788       -3.05465       -1.21938
H          3.79375       -3.80080       -0.60969
H          6.09574       -1.28438       -3.16646
H          2.65044       -0.09282       -3.77121
H          2.78642       -1.60047       -4.70647
C          3.73339        1.97750       -5.47054
C          5.15820        0.66480       -7.04826
C          2.76598        0.01364       -6.76010
H          4.64120        2.36642       -4.95701
H          3.46200        2.68044       -6.28714
H          2.90069        1.96769       -4.73992
H          5.39893       -0.34089       -7.45658
H          4.87151        1.32314       -7.89756
H          6.07707        1.07915       -6.58047
H          2.98236       -1.00994       -7.13970
H          1.88218       -0.04034       -6.08832
H          2.48563        0.66294       -7.61293

