%chk=speciation129.chk
%nprocshared=16
%mem=32GB
#p opt=loose PM7 scf=xqc 

 speciation study

-2 1
Mg         1.29191       -0.14975       -0.44364
C          3.28604        2.03113        0.56740
C          3.06385        0.34920        2.20920
O          2.60518        0.82541        0.93374
C          4.82846        1.98145        0.61816
C          3.17572        1.44303        3.32657
H          3.07027        2.26517       -0.45660
H          2.87575        2.89484        1.13902
H          2.34640       -0.41137        2.57668
H          4.05182       -0.14523        2.10338
H          2.23857        1.96453        3.46793
H          3.49321        0.99658        4.29061
H          3.86482        2.28468        3.13718
H          5.20280        1.15601       -0.01480
H          5.23860        2.94892        0.25679
H          5.24305        1.83868        1.63315
H          2.00263       -2.86712       -0.48288
C          3.07755       -2.80832       -2.25794
C          1.95714       -2.22100       -1.38163
C          3.17995       -2.07818       -3.58759
H          4.04073       -2.77125       -1.71209
H          2.84075       -3.88287       -2.46157
H          3.92584       -2.56443       -4.25693
H          2.18990       -2.14355       -4.08638
C          3.58043       -0.62366       -3.35917
H          1.01397       -2.51860       -1.89359
H          3.13314        0.01368       -4.14584
H          3.23027       -0.26361       -2.37172
H          4.68439       -0.52556       -3.36892
C          1.04395        5.49736       -0.81448
C          2.09964        5.72910       -1.67307
C          2.35352        4.54808       -2.33629
C          1.42621        3.64482       -1.85916
N          0.59629        4.22518       -0.96252
C          1.33003        2.19763       -2.32715
N          0.24528        1.42157       -1.66410
C         -0.73341        0.94011       -2.67316
H          2.63317        6.66302       -1.84512
H          0.57996        6.25446       -0.19486
H          3.11190        4.36384       -3.09137
H          2.28513        1.66728       -2.20549
H          1.28268        2.22678       -3.43079
C         -0.13375       -0.11548       -3.65290
C         -1.86606        0.28811       -1.91559
C         -1.25820        2.06790       -3.62049
H          0.29527       -0.95581       -3.10518
H         -0.92577       -0.50950       -4.31978
H          0.65319        0.31075       -4.31250
H         -2.08035        0.90181       -1.03574
H         -2.76116        0.11580       -2.53726
H         -1.55478       -0.68420       -1.53216
H         -1.57391        2.94751       -3.08917
H         -0.52101        2.45093       -4.35113
H         -2.07625        1.69561       -4.26670
Mg        -0.82939        2.95968       -0.44279
C         -2.90738        5.01592       -1.97159
C         -3.78386        3.03992       -1.12927
O         -2.57252        3.77059       -1.33217
C         -1.74781        5.95124       -2.26628
C         -4.51729        2.56625       -2.38526
H         -3.32505        4.81475       -2.97763
H         -3.63318        5.59750       -1.35663
H         -3.56127        2.16535       -0.50444
H         -4.52376        3.64192       -0.56569
H         -3.86587        2.02079       -3.07454
H         -5.33863        1.88860       -2.07446
H         -4.98330        3.41893       -2.91785
H         -0.96488        5.44268       -2.86444
H         -2.13429        6.80253       -2.87433
H         -1.35474        6.38414       -1.33162
H         -0.65264       -2.14271       -0.33926
C         -1.09778       -1.04695        1.42628
C         -0.11304       -1.58647        0.44839
C         -1.98014       -2.10901        2.12355
H         -0.40148       -0.64096        2.15108
H         -1.71923       -0.24822        0.97364
H         -1.33295       -2.86508        2.61636
H         -2.59664       -1.63001        2.90579
C         -2.98355       -2.79403        1.21197
H          0.50666       -2.32995        0.99263
H         -3.68419       -2.04336        0.78783
H         -2.47315       -3.34646        0.40167
H         -3.57028       -3.51762        1.81983
C         -1.51126       -0.44933        5.02211
C         -0.31397       -0.18326        5.61819
C          0.33267        0.76917        4.84304
C         -0.44295        1.09156        3.78539
N         -1.62402        0.32360        3.86568
C         -0.11857        2.03213        2.57731
N         -1.29073        2.50218        1.78819
C         -2.22804        3.36485        2.62997
H          0.04457       -0.65160        6.52513
H         -2.26055       -1.15014        5.36266
H          1.30418        1.13077        5.11414
H          0.53933        1.48635        1.90188
H          0.45801        2.91638        2.90350
C         -1.49484        4.46228        3.43070
C         -3.22927        4.03396        1.72482
C         -3.10715        2.55537        3.62490
H         -0.87300        5.09270        2.76556
H         -2.23287        5.10033        3.96408
H         -0.85986        4.01916        4.22915
H         -3.87882        3.23094        1.34803
H         -3.90400        4.70772        2.29489
H         -2.72113        4.62810        0.94538
H         -3.55551        1.66762        3.11725
H         -2.56609        2.28528        4.54876
H         -3.94942        3.15480        4.02254

