%chk=speciation115.chk
%nprocshared=16
%mem=32GB
#p opt=loose PM7 scf=xqc 

 speciation study

-2 1
Mg         1.19283       -0.52824       -0.06856
C          0.32529       -2.00363        2.47190
C          0.48212       -3.44570        0.66031
O          0.31482       -2.09061        1.04769
C          1.53832       -2.64259        3.18420
C         -0.66776       -4.40247        1.02713
H          0.30497       -0.94434        2.73921
H         -0.61760       -2.41424        2.89195
H          0.41887       -3.44018       -0.37430
H          1.48027       -3.85688        0.91196
H         -1.63058       -4.04383        0.61033
H         -0.46245       -5.40031        0.57339
H         -0.76697       -4.55446        2.11851
H          2.48428       -2.22668        2.78491
H          1.48041       -2.44612        4.27414
H          1.54440       -3.74952        3.07838
H          0.79564        2.23627        0.39174
C          0.72977        1.82467        2.51520
C          0.45097        1.39217        1.02516
C          2.21684        2.10631        2.85893
H          0.17183        2.76484        2.71711
H          0.34460        1.07766        3.22865
H          2.81136        1.18476        2.70372
H          2.58684        2.93081        2.21127
C          2.44708        2.54105        4.30403
H         -0.65123        1.33333        0.91027
H          1.87965        3.46576        4.53719
H          2.15541        1.73461        5.00838
H          3.53008        2.75410        4.45325
C          4.81894        0.28383       -4.27654
C          4.45124        1.43955       -4.91631
C          3.10944        1.69317       -4.62230
C          2.65578        0.71068       -3.80557
N          3.72428       -0.18219       -3.55604
C          1.22226        0.64785       -3.17785
N          0.75117       -0.57983       -2.42310
C          0.73624       -1.79930       -3.40089
H          5.11424        2.01443       -5.56681
H          5.79332       -0.20742       -4.30727
H          2.54935        2.53658       -4.96592
H          0.49997        0.88260       -3.97893
H          1.12773        1.51817       -2.50348
C          2.12173       -2.25637       -3.94569
C          0.21645       -3.08371       -2.76054
C         -0.16016       -1.56649       -4.65146
H          2.84871       -2.37315       -3.10951
H          2.08272       -3.25264       -4.43914
H          2.47235       -1.62950       -4.78472
H         -0.75649       -2.95771       -2.24985
H          0.08091       -3.88992       -3.51913
H          1.04372       -3.51656       -2.17325
H         -1.22028       -1.41216       -4.37289
H          0.19343       -0.73489       -5.29054
H         -0.11008       -2.45548       -5.32586
Mg        -1.23529        0.21034       -2.01324
C          3.70622        0.93561        0.26626
C          3.89455       -1.43752        0.00768
O          3.08554       -0.35724        0.42658
C          4.10853        1.25407       -1.12259
C          5.25010       -1.47680        0.72567
H          2.94411        1.69133        0.47311
H          4.52185        1.11247        0.98943
H          3.36225       -2.36754        0.28733
H          4.01782       -1.44540       -1.09168
H          5.10205       -1.48887        1.82632
H          5.80654       -2.38679        0.41923
H          5.87957       -0.60247        0.45581
H          3.16976        1.07604       -1.60923
H          4.36895        2.32058       -1.27865
H          4.93522        0.60789       -1.47857
H         -3.60331       -1.46385       -1.49354
C         -3.41295       -0.67275        0.49866
C         -2.76790       -1.15913       -0.82043
C         -4.27947        0.56111        0.24446
H         -4.05161       -1.46954        0.96082
H         -2.60328       -0.43949        1.22081
H         -3.66479        1.30306       -0.29896
H         -5.15667        0.27918       -0.38147
C         -4.77407        1.21725        1.53363
H         -2.24073       -2.10319       -0.57011
H         -5.45247        0.54783        2.10424
H         -3.91117        1.49874        2.17437
H         -5.32851        2.14458        1.27237
C         -3.32148        2.09348       -3.14685
C         -3.71287        3.32238       -3.66473
C         -2.62094        4.14075       -3.55528
C         -1.60960        3.39604       -2.97307
N         -2.02959        2.10250       -2.73255
C         -0.25493        4.01259       -2.71131
N         -0.39649        5.44821       -2.35676
C          0.84321        6.24790       -2.16165
H         -4.67073        3.59711       -4.06986
H         -3.97361        1.22988       -3.10614
H         -2.57528        5.17938       -3.87656
H          0.26110        3.45431       -1.90991
H          0.31652        3.93029       -3.67036
C          1.75504        6.22078       -3.40810
C          0.44385        7.72342       -1.91806
C          1.61116        5.75700       -0.92275
H          1.20740        6.60227       -4.29794
H          2.64356        6.87290       -3.25138
H          2.13375        5.20303       -3.62245
H         -0.21080        7.82257       -1.02610
H          1.34706        8.35473       -1.74680
H         -0.09620        8.14491       -2.79349
H          0.96351        5.82810       -0.02216
H          1.94420        4.70781       -1.04498
H          2.51508        6.38254       -0.75183

