%chk=speciation2.chk
%nprocshared=16
%mem=32GB
#p opt=loose PM7 scf=xqc 

 speciation study

-2 1
Mg         0.88835        0.12248       -0.33136
C         -0.12628       -2.43869       -0.22944
C         -0.43152       -1.53919       -2.41132
O         -0.33367       -1.26667       -1.01119
C          0.98546       -3.37170       -0.73220
C         -1.70031       -2.34064       -2.78279
H          0.16689       -2.09303        0.78224
H         -1.07512       -2.99633       -0.08538
H         -0.47406       -0.58297       -2.96787
H          0.47206       -2.04745       -2.79863
H         -2.61670       -1.73537       -2.62800
H         -1.65790       -2.63857       -3.85356
H         -1.79906       -3.27939       -2.19878
H          1.90672       -2.78355       -0.91105
H          1.17489       -4.16670        0.01851
H          0.70636       -3.88780       -1.67302
C         -1.52339        2.38500       -3.29921
C         -2.47061        1.39475       -3.16327
C         -2.56972        1.10118       -1.82128
C         -1.71311        1.88430       -1.15791
N         -1.01486        2.73109       -2.03995
C         -1.55553        1.89558        0.31806
N         -0.15978        1.62370        0.70577
C          0.05164        1.63793        2.18225
H         -3.02983        0.93421       -3.96753
H         -1.21133        2.83328       -4.22959
H         -3.23819        0.37893       -1.37171
H         -2.24353        1.14024        0.75217
H         -1.86262        2.90372        0.66261
C         -0.77152        0.53161        2.88581
C          1.52959        1.37250        2.41558
C         -0.28744        3.00590        2.83019
H         -0.58228       -0.45495        2.41695
H         -0.50715        0.47043        3.96398
H         -1.85969        0.74414        2.84803
H          2.15357        2.16723        1.95172
H          1.76820        1.31803        3.50051
H          1.76530        0.41186        1.93429
H          0.29709        3.82518        2.35886
H         -1.36612        3.25174        2.76365
H         -0.04113        2.98996        3.91613
C          2.88391       -3.23157        2.61753
C          3.18953       -2.14845        3.39977
C          3.60701       -1.12598        2.55143
C          3.53181       -1.56927        1.30011
N          3.10897       -2.91448        1.27117
C          3.94555       -0.84051        0.04593
N          3.01255        0.21419       -0.45944
C          3.51226        0.83808       -1.73262
H          3.12255       -2.11879        4.47691
H          2.52753       -4.19490        2.95845
H          3.95496       -0.15184        2.86536
H          4.04355       -1.63303       -0.71359
H          4.94826       -0.42348        0.24839
C          3.74188       -0.20440       -2.85707
C          2.46768        1.84698       -2.22899
C          4.84116        1.61668       -1.51147
H          2.82258       -0.79919       -3.03817
H          4.03259        0.29777       -3.80617
H          4.58221       -0.89265       -2.62871
H          2.32547        2.66289       -1.48955
H          2.79833        2.30779       -3.18835
H          1.49583        1.34157       -2.40538
H          4.71789        2.39888       -0.73261
H          5.68110        0.95545       -1.22096
H          5.16272        2.11537       -2.45341

