%chk=speciation57.chk
%nprocshared=16
%mem=32GB
#p opt=loose PM7 scf=xqc 

 speciation study

-2 1
Mg         0.32811       -0.16191        0.56936
C          0.67201        2.46559       -1.22432
C         -1.44108        2.35431       -0.32989
O         -0.33178        1.53619       -0.71981
C          0.22779        3.25878       -2.50149
C         -2.59382        1.58760        0.25428
H          0.99800        3.21723       -0.46065
H          1.57426        1.89303       -1.51677
H         -1.13555        3.13000        0.40875
H         -1.90249        2.85794       -1.21272
H         -2.22952        0.95307        1.08086
H         -3.35528        2.30354        0.62544
H         -3.11132        1.03190       -0.54617
H         -0.26513        2.58791       -3.23502
H         -0.47817        4.08985       -2.26379
H          1.08798        3.75596       -3.00343
H          2.07294       -2.04588        0.50225
C          3.67670       -1.84203       -0.70188
C          2.32528       -1.25849       -0.22950
C          4.71335       -1.88408        0.43011
H          3.52293       -2.89463       -1.04914
H          4.09316       -1.28511       -1.57708
H          4.28900       -2.41123        1.31458
H          5.62500       -2.45594        0.11263
C          5.13853       -0.47987        0.79261
H          1.67481       -1.41516       -1.12893
H          5.64737       -0.01484       -0.08095
H          4.25350        0.12700        1.06587
H          5.84661       -0.49626        1.65160
C          0.38296       -6.61326        1.44044
C          0.98652       -6.24569        0.25656
C          0.91455       -4.86709        0.18006
C          0.24968       -4.44324        1.31942
N         -0.06753       -5.52394        2.08526
C         -0.07231       -2.99076        1.69356
N         -0.66564       -2.15123        0.59661
C         -2.05230       -2.55357        0.18959
H          1.44309       -6.91390       -0.46199
H          0.29629       -7.62139        1.82450
H          1.29918       -4.25328       -0.62228
H          0.86037       -2.51998        2.03548
H         -0.68594       -2.95492        2.61243
C         -3.05291       -2.27150        1.32538
C         -2.41434       -1.76512       -1.06588
C         -2.19487       -4.04600       -0.23093
H         -3.03154       -1.20737        1.61974
H         -4.08324       -2.54573        1.01587
H         -2.82376       -2.89287        2.21851
H         -1.78585       -2.06776       -1.92955
H         -3.48570       -1.91088       -1.33649
H         -2.19606       -0.71851       -0.90013
H         -1.47089       -4.29529       -1.04232
H         -2.07972       -4.75167        0.60719
H         -3.21123       -4.24594       -0.63085
Mg        -0.87331       -5.47435        3.90415
H          0.93428       -0.19062        3.34168
C         -0.45359        1.38567        3.86251
C          0.49576        0.68365        2.81472
C         -1.59490        0.49913        4.40449
H          0.15740        1.68634        4.75582
H         -0.86605        2.32011        3.43249
H         -2.15376        0.06196        3.55958
H         -1.13435       -0.33036        4.98819
C         -2.65188        1.25246        5.25998
H          1.31541        1.41715        2.65429
H         -3.38665        1.70219        4.57141
H         -2.29763        2.11627        5.87158
H         -3.21872        0.53237        5.90164
C          0.76842       -3.98754        9.28725
C          1.56390       -3.91662        8.16755
C          0.73313       -4.02951        7.05619
C         -0.49222       -4.15695        7.49478
N         -0.56007       -4.15281        8.89421
C         -1.72459       -4.28197        6.65412
N         -1.67910       -5.42476        5.72304
C         -3.07250       -6.06010        5.68422
H          2.63675       -3.80157        8.17115
H          1.10181       -3.93094       10.32343
H          1.03891       -3.98808        6.01521
H         -1.97975       -3.34124        6.12118
H         -2.49604       -4.41257        7.44398
C         -4.23342       -5.01667        5.54519
C         -3.22945       -7.01208        4.47885
C         -3.33692       -6.91996        6.95491
H         -4.13180       -4.42221        4.61460
H         -5.22103       -5.53083        5.51883
H         -4.32081       -4.31185        6.39686
H         -2.51183       -7.85416        4.51795
H         -4.25629       -7.45800        4.49471
H         -3.13396       -6.46816        3.51749
H         -2.59217       -7.73822        7.04369
H         -3.33134       -6.34305        7.90046
H         -4.34594       -7.39221        6.90011

