%chk=speciation10.chk
%nprocshared=16
%mem=32GB
#p opt=loose PM7 scf=xqc 

 speciation study

-2 1
Mg         1.35004        1.42545       -0.18429
H          0.82859        3.17028        1.75280
C          2.97787        3.24545        1.91243
C          1.68924        2.47795        1.63366
C          3.13612        4.40659        0.92999
H          2.93295        3.64670        2.94923
H          3.84679        2.55463        1.83832
H          3.19783        4.00480       -0.09956
H          2.25476        5.08219        1.00564
C          4.39320        5.21621        1.23358
H          1.59421        1.68062        2.40391
H          4.33250        5.66403        2.24870
H          5.29474        4.56914        1.17266
H          4.49043        6.03547        0.49033
C         -1.53877        0.92518        0.36522
C         -2.20096       -0.25076        0.65075
C         -1.24479       -1.26447        0.62701
C         -0.04560       -0.65100        0.33696
N         -0.23932        0.66386        0.16915
C          1.32454       -1.29500        0.20712
N          2.35708       -0.27162       -0.10439
C          3.33702       -0.58909       -1.16246
H         -3.25552       -0.35435        0.85697
H         -1.97153        1.91810        0.31875
H         -1.42098       -2.31382        0.81312
H          1.25079       -2.08210       -0.56571
H          1.58294       -1.78861        1.16624
C          2.62098       -0.82450       -2.49458
C          4.28000        0.62042       -1.28633
C          4.17551       -1.83661       -0.82268
H          1.89151       -0.03476       -2.60134
H          3.32801       -0.82642       -3.35220
H          2.05400       -1.77436       -2.52549
H          4.82171        0.78649       -0.33049
H          5.03068        0.45818       -2.08967
H          3.71158        1.54308       -1.52031
H          4.72781       -1.69711        0.12816
H          3.53362       -2.73763       -0.73185
H          4.91142       -2.03120       -1.63516
H          0.30047        3.23640       -1.78189
C          0.82864        2.05530       -3.52501
C          1.11568        2.54785       -2.08012
C         -0.38571        1.11876       -3.68836
H          0.69972        2.93368       -4.19346
H          1.72401        1.53827       -3.91928
H         -0.40154        0.76080       -4.74184
H         -0.29784        0.22478       -3.03074
C         -1.71903        1.81012       -3.42662
H          2.05603        3.13375       -2.13972
H         -1.78471        2.14619       -2.37283
H         -1.83283        2.68078       -4.10547
H         -2.54855        1.09785       -3.62652

