%chk=speciation18.chk
%nprocshared=16
%mem=32GB
#p opt=loose PM7 scf=xqc 

 speciation study

-2 1
Mg         0.46677       -0.03422        0.02883
H          2.27801       -1.28912        1.59271
C          2.48639        0.77634        2.19877
C          2.29299       -0.28608        1.11567
C          1.30746        0.77613        3.17458
H          3.43179        0.57152        2.75161
H          2.57022        1.77333        1.71537
H          0.37089        0.98166        2.61297
H          1.22553       -0.22007        3.66135
C          1.47644        1.83916        4.25906
H          3.16469       -0.24921        0.42698
H          2.39152        1.64439        4.85857
H          1.54669        2.85069        3.80510
H          0.59797        1.81653        4.93834
C         -0.62109        4.84762       -3.81003
C         -0.09657        5.43010       -2.66739
C          0.31134        4.40126       -1.84821
C          0.00788        3.23930       -2.51624
N         -0.56749        3.49525       -3.72426
C          0.22648        1.86434       -1.95246
N         -0.53273        1.63530       -0.70523
C         -2.03873        1.65794       -0.81200
H         -0.03712        6.48780       -2.44699
H         -1.05280        5.37966       -4.64374
H          0.74447        4.49288       -0.86096
H          1.30545        1.76628       -1.73067
H         -0.00214        1.08557       -2.70625
C         -2.53137        0.68187       -1.86818
C         -2.64139        1.23855        0.53460
C         -2.61837        3.06249       -1.13598
H         -2.14380       -0.31772       -1.60916
H         -3.64165        0.64428       -1.91180
H         -2.18536        1.00366       -2.86912
H         -2.32556        1.93544        1.33762
H         -3.75532        1.26710        0.47375
H         -2.34399        0.20402        0.80021
H         -2.25213        3.82559       -0.41855
H         -2.42030        3.39703       -2.16443
H         -3.72848        3.04618       -1.09740
Mg        -1.32775        2.26791       -5.10905
H         -0.22691       -2.14396       -1.23586
C          1.21250       -3.38331       -0.26593
C          0.78303       -2.01779       -0.82367
C          0.37282       -3.84391        0.92819
H          1.14127       -4.14735       -1.07829
H          2.27718       -3.33597        0.04625
H          0.77584       -4.82042        1.27682
H          0.47950       -3.10544        1.74890
C         -1.10876       -4.03522        0.59808
H          1.49724       -1.79870       -1.64600
H         -1.58005       -3.07824        0.29473
H         -1.23533       -4.78264       -0.21451
H         -1.63751       -4.40068        1.50270
C         -0.74815       -1.54136       -3.77586
C         -1.91709       -2.13418       -3.34021
C         -2.95744       -1.55678       -4.04325
C         -2.43276       -0.64870       -4.86382
N         -1.03137       -0.58948       -4.75160
C         -3.19592        0.22022       -5.78694
N         -2.24209        1.10271       -6.47001
C         -2.75801        1.83993       -7.63404
H         -2.00163       -2.88764       -2.56982
H          0.24759       -1.73987       -3.43346
H         -4.01152       -1.77992       -3.93308
H         -3.92815        0.82091       -5.20764
H         -3.71910       -0.46172       -6.48236
C         -3.87426        2.81757       -7.21257
C         -1.58263        2.64127       -8.21996
C         -3.27654        0.87453       -8.72902
H         -3.50043        3.51541       -6.43484
H         -4.21680        3.40509       -8.09018
H         -4.75132        2.27199       -6.81277
H         -0.76555        1.95035       -8.52098
H         -1.90546        3.21465       -9.11194
H         -1.17764        3.34645       -7.46307
H         -2.48296        0.14533       -9.00607
H         -4.17526        0.31142       -8.40624
H         -3.57237        1.43798       -9.63646

