%chk=speciation105.chk
%nprocshared=16
%mem=32GB
#p opt=loose PM7 scf=xqc 

 speciation study

-2 1
Mg         1.29458       -0.02545       -0.22571
C          3.14977       -2.30531       -0.53373
C          1.60825       -2.21148       -2.29956
O          1.95588       -1.69878       -1.01916
C          4.41359       -1.92816       -1.29160
C          0.35573       -1.56328       -2.86233
H          3.36803       -1.91462        0.45959
H          3.03180       -3.41041       -0.44201
H          2.40421       -2.00734       -3.04243
H          1.40661       -3.30640       -2.23339
H          0.52057       -0.47684       -2.99393
H          0.14938       -2.00635       -3.86334
H         -0.52039       -1.74577       -2.20805
H          4.52754       -0.83801       -1.25592
H          5.29385       -2.35623       -0.77137
H          4.41704       -2.30001       -2.33289
H         -2.48001        3.04905        3.44969
C         -0.47279        3.84276        3.45654
C         -1.44295        2.65468        3.42585
C         -0.61155        4.71837        4.72255
H          0.57742        3.50588        3.42070
H         -0.66692        4.46415        2.55954
H          0.08238        5.57911        4.61151
H         -1.64600        5.11303        4.80630
C         -0.23312        4.00529        6.03138
H         -1.31442        2.13121        4.38180
H         -0.92743        3.17537        6.27308
H          0.80422        3.60946        5.98035
H         -0.28613        4.72964        6.87257
C         -4.08224       -0.14994        2.73544
C         -4.48474       -1.46805        2.72021
C         -3.41225       -2.20984        2.23975
C         -2.39574       -1.30297        1.98352
N         -2.81878       -0.07607        2.30169
C         -1.00278       -1.56971        1.40008
N         -0.06309       -0.39745        1.55347
C          0.75452       -0.54088        2.82042
H         -5.46374       -1.83528        2.99964
H         -4.68428        0.71063        2.99945
H         -3.39301       -3.27989        2.08889
H         -1.11042       -1.85222        0.33649
H         -0.62131       -2.48057        1.89730
C          1.62945       -1.81944        2.90167
C          1.68813        0.66265        2.85359
C         -0.09448       -0.59396        4.11134
H          2.13036       -2.00342        1.97420
H          2.38585       -1.73606        3.71472
H          1.06037       -2.74316        3.13571
H          1.06885        1.55838        2.85547
H          2.33185        0.67506        3.76013
H          2.33149        0.67639        1.94651
H         -0.82516        0.19923        4.15396
H         -0.66841       -1.53981        4.19396
H          0.55817       -0.53243        5.01381
Mg        -1.56760        1.09495        1.81837
H         -2.10188        2.42298       -0.65261
C         -4.12865        2.23689        0.01350
C         -2.66484        1.73144       -0.00695
C         -4.38250        3.59708        0.68483
H         -4.47922        2.30601       -1.04365
H         -4.76875        1.47701        0.51316
H         -5.47374        3.81695        0.58980
H         -4.13658        3.55196        1.76421
C         -3.62293        4.74845        0.02526
H         -2.68518        0.75264       -0.53227
H         -2.53267        4.61988        0.16570
H         -3.85686        4.79758       -1.06132
H         -3.92843        5.70668        0.49330
C          5.80179        4.32349       -2.32564
C          5.15119        4.59524       -3.51050
C          4.13249        3.66651       -3.64117
C          4.14330        2.85702       -2.56272
N          5.18591        3.23021       -1.68381
C          3.19218        1.67620       -2.33259
N          2.33313        1.74214       -1.10109
C          1.32089        2.82593       -1.14142
H          5.40870        5.38857       -4.20500
H          6.65122        4.87500       -1.94586
H          3.44247        3.61039       -4.47288
H          3.85046        0.80688       -2.27357
H          2.57908        1.49255       -3.23448
C          0.42046        2.73145       -2.40532
C          0.45072        2.63123        0.09378
C          1.90259        4.25107       -1.03217
H         -0.03433        1.72886       -2.47945
H         -0.39254        3.47387       -2.36959
H          0.99126        2.94150       -3.34242
H          1.06186        2.74081        0.99956
H         -0.34574        3.41371        0.13754
H         -0.01361        1.63047        0.07094
H          2.55675        4.33375       -0.13333
H          2.46900        4.56926       -1.91653
H          1.08798        4.99871       -0.93716

