%chk=speciation82.chk
%nprocshared=16
%mem=32GB
#p opt=loose PM7 scf=xqc 

 speciation study

-2 1
Mg         1.22218        0.55721        0.47006
C         -0.59872        2.27486       -1.21519
C         -0.77610        2.81562        1.05368
O         -0.21394        1.91394        0.10534
C         -0.32473        1.14991       -2.17346
C         -0.15609        4.21829        0.97901
H         -1.69663        2.46814       -1.28605
H         -0.02210        3.15461       -1.56613
H         -1.88447        2.88943        0.92720
H         -0.63186        2.40479        2.07241
H         -0.34481        4.69718       -0.00551
H         -0.61432        4.87770        1.74586
H          0.93683        4.15749        1.15002
H         -0.93836        0.27341       -1.87434
H         -0.61202        1.43594       -3.20494
H          0.76587        0.94471       -2.16006
H         -1.23072       -0.45141        1.33226
C         -0.10609       -1.52921        2.83548
C         -0.21746       -0.89637        1.43097
C         -0.29042       -0.52122        3.98273
H         -0.89108       -2.31226        2.94268
H          0.87467       -2.04197        2.92092
H          0.42820        0.31704        3.89790
H         -1.31713       -0.09807        3.94337
C         -0.07423       -1.19562        5.34107
H         -0.17698       -1.74566        0.72042
H         -0.79269       -2.03015        5.48813
H          0.96083       -1.59568        5.41200
H         -0.21794       -0.45717        6.15845
C          5.22490       -1.18813       -3.15886
C          5.71100       -0.02153       -3.71446
C          5.33588        1.00456       -2.87034
C          4.63077        0.41537       -1.83798
N          4.59478       -0.91411       -2.00358
C          3.99148        1.13802       -0.67182
N          3.34705        0.22261        0.33567
C          3.88164        0.51031        1.71351
H          6.27183        0.06985       -4.63546
H          5.32739       -2.17572       -3.58171
H          5.55402        2.05711       -2.99878
H          3.25595        1.88559       -1.02813
H          4.83633        1.72286       -0.25159
C          3.61928        1.98303        2.14867
C          3.14714       -0.41320        2.66935
C          5.40204        0.27671        1.88377
H          2.55527        2.26517        2.02847
H          3.91406        2.13158        3.21102
H          4.23604        2.70969        1.57289
H          3.31613       -1.47233        2.39000
H          3.46668       -0.25073        3.71805
H          2.08625       -0.16663        2.57875
H          5.68152       -0.70562        1.55909
H          6.04890        0.98367        1.32390
H          5.70043        0.36127        2.94961
Mg         3.67557       -1.69033       -0.58702
H          5.83715       -2.56463        0.97204
C          5.90523       -4.30676       -0.08367
C          5.06151       -3.13435        0.46927
C          6.85146       -3.90574       -1.21019
H          5.32508       -5.12501       -0.49229
H          6.47781       -4.77023        0.74877
H          7.31568       -4.83276       -1.60950
H          6.27476       -3.44032       -2.02833
C          7.97186       -2.98591       -0.74841
H          4.39300       -3.50690        1.26834
H          7.57530       -2.01006       -0.40240
H          8.53511       -3.47602        0.07444
H          8.66269       -2.80813       -1.59776
C          0.89108       -1.97880       -1.76923
C          0.02430       -2.75525       -2.52432
C          0.69167       -3.91730       -2.79852
C          1.91521       -3.79542       -2.18201
N          2.06108       -2.59572       -1.55841
C          2.91406       -4.86760       -2.13135
N          3.14870       -5.21375       -0.72968
C          2.13594       -5.88094        0.10462
H         -0.98518       -2.51917       -2.83376
H          0.68443       -1.02213       -1.36931
H          0.31669       -4.77448       -3.35190
H          2.60458       -5.75683       -2.71933
H          3.85689       -4.48672       -2.57831
C          1.66817       -7.18986       -0.54679
C          2.82880       -6.20647        1.43791
C          0.94491       -4.95524        0.42330
H          2.53984       -7.85491       -0.72891
H          0.95036       -7.71632        0.11465
H          1.16319       -6.99976       -1.51564
H          3.18227       -5.27729        1.93030
H          2.12954       -6.71180        2.13519
H          3.71007       -6.86311        1.27296
H          1.31111       -3.98224        0.81817
H          0.30617       -4.77554       -0.45451
H          0.28230       -5.41557        1.18337

