%chk=speciation126.chk
%nprocshared=16
%mem=32GB
#p opt=loose PM7 scf=xqc 

 speciation study

-2 1
Mg         1.22448       -0.08804        0.30616
C          0.36836        0.45389       -2.57143
C         -0.07515        2.35127       -1.33587
O          0.25040        0.95584       -1.23774
C          1.48211        1.10309       -3.42048
C         -0.39669        2.97851       -0.01465
H          0.57710       -0.61955       -2.52641
H         -0.60620        0.54918       -3.11006
H          0.74623        2.96356       -1.76334
H         -1.00951        2.48180       -1.93556
H          0.52805        3.03230        0.56773
H         -0.73864        4.02543       -0.14821
H         -1.21121        2.40300        0.44581
H          2.44906        1.04847       -2.88561
H          1.56785        0.57931       -4.39566
H          1.26329        2.16311       -3.67095
H          3.28829        1.65377        0.53594
C          4.70498        0.58661       -0.59998
C          3.45820        0.57475        0.32229
C          5.16689       -0.80933       -1.00145
H          4.50756        1.18931       -1.51278
H          5.55234        1.08223       -0.06583
H          6.08770       -0.73836       -1.62475
H          5.41268       -1.39869       -0.09131
C          4.07860       -1.49629       -1.80466
H          3.78749        0.10269        1.27288
H          3.15634       -1.52602       -1.19950
H          3.87352       -0.92269       -2.73202
H          4.38694       -2.52737       -2.06476
C         -1.47138       -6.03336       -0.47925
C         -0.33756       -6.59848       -1.02325
C          0.58903       -5.57876       -1.20664
C          0.03278       -4.43212       -0.79259
N         -1.27625       -4.65164       -0.32024
C          0.68921       -3.06495       -0.78395
N          0.52642       -2.32842        0.49849
C          1.23881       -3.07544        1.62620
H         -0.21369       -7.65071       -1.25368
H         -2.37501       -6.56328       -0.21216
H          1.58525       -5.70516       -1.60881
H          0.21636       -2.45981       -1.56290
H          1.75400       -3.15425       -1.09946
C          2.76042       -3.33340        1.33418
C          1.19297       -2.27260        2.91079
C          0.66052       -4.47947        2.03612
H          3.27373       -2.37847        1.07107
H          3.27940       -3.75948        2.20847
H          2.91995       -4.06268        0.50739
H          0.15210       -2.04396        3.20712
H          1.68661       -2.78779        3.75540
H          1.78006       -1.37446        2.74107
H         -0.42238       -4.42826        2.27340
H          0.84864       -5.28903        1.31112
H          1.17746       -4.87202        2.93430
Mg        -1.73693       -2.12011        0.38226
C         -2.93058       -2.62410        3.13967
C         -4.38723       -1.06486        2.14244
O         -3.10772       -1.76533        2.01956
C         -3.90226       -3.82165        3.18568
C         -4.59270       -0.19891        3.40458
H         -1.90155       -3.00931        3.14919
H         -2.97570       -2.04500        4.08193
H         -4.52284       -0.30246        1.38999
H         -5.25560       -1.73811        1.99293
H         -4.66235       -0.78399        4.34186
H         -5.56840        0.34081        3.32375
H         -3.79577        0.56743        3.48432
H         -3.61232       -4.58460        2.43834
H         -3.87224       -4.26911        4.20043
H         -4.96299       -3.55100        3.01513
H          1.67802        0.60513        2.99072
C         -0.39478        1.10509        2.97457
C          0.95432        0.99451        2.25727
C         -0.25431        1.92321        4.26774
H         -1.13702        1.60163        2.33811
H         -0.77849        0.09311        3.20678
H          0.43046        1.39492        4.96680
H          0.17398        2.92586        4.04292
C         -1.60816        2.12498        4.93784
H          1.36388        2.00608        2.10380
H         -2.27848        2.70841        4.26957
H         -2.07580        1.14467        5.16394
H         -1.47703        2.68909        5.88484
C         -3.41145       -2.93962       -6.13265
C         -2.43965       -1.96478       -6.06476
C         -1.92341       -1.98273       -4.78218
C         -2.56883       -2.91744       -4.08561
N         -3.51810       -3.58930       -4.89240
C         -2.34567       -3.22931       -2.63519
N         -2.50063       -2.05957       -1.72342
C         -3.85972       -1.45423       -1.68775
H         -2.15198       -1.30177       -6.86885
H         -4.01285       -3.16910       -7.00148
H         -1.15406       -1.33336       -4.39527
H         -1.30894       -3.57072       -2.62800
H         -2.98649       -4.07441       -2.31198
C         -4.85703       -2.45044       -1.04523
C         -3.69185       -0.17324       -0.89244
C         -4.45643       -0.98287       -3.04255
H         -4.48837       -2.83055       -0.07327
H         -5.85814       -1.98943       -0.90788
H         -5.01015       -3.32995       -1.71130
H         -3.08771        0.56989       -1.44867
H         -4.68540        0.28170       -0.67522
H         -3.07980       -0.38105       -0.00345
H         -3.76016       -0.28910       -3.56229
H         -4.74837       -1.80630       -3.71231
H         -5.40726       -0.43104       -2.86975

