%chk=speciation19.chk
%nprocshared=16
%mem=32GB
#p opt=loose PM7 scf=xqc 

 speciation study

-2 1
Mg         1.04547        0.26428        0.20374
H          0.76701       -1.08929       -2.13328
C         -1.20347       -1.34400       -1.27493
C          0.31746       -1.25476       -1.13718
C         -1.85350       -0.05556       -1.78234
H         -1.47600       -2.17863       -1.95990
H         -1.60982       -1.56326       -0.26997
H         -2.95657       -0.19218       -1.79488
H         -1.62296        0.75522       -1.07506
C         -1.41018        0.32817       -3.19370
H          0.68247       -2.24436       -0.78840
H         -0.32147        0.53341       -3.23261
H         -1.65758       -0.48901       -3.90428
H         -1.93949        1.25066       -3.51075
C         -0.73390        3.74575        5.34553
C         -1.91439        3.19461        4.89764
C         -1.59778        2.28311        3.90369
C         -0.27395        2.28180        3.74514
N          0.34662        3.18676        4.64211
C          0.48692        1.44947        2.73816
N          0.06543        1.66770        1.32684
C          0.39092        3.02116        0.75232
H         -2.90359        3.44211        5.26036
H         -0.64792        4.50234        6.11991
H         -2.29709        1.68596        3.33752
H          0.32109        0.38440        2.99068
H          1.57463        1.62813        2.85555
C          1.89404        3.37169        0.86977
C          0.03644        2.99165       -0.74016
C         -0.42792        4.17478        1.38683
H          2.52043        2.59879        0.38457
H          2.10630        4.34339        0.36927
H          2.21564        3.49741        1.92396
H         -1.05039        2.82778       -0.87198
H          0.27833        3.96306       -1.22577
H          0.60480        2.19118       -1.26040
H         -1.51734        3.97266        1.32753
H         -0.14524        4.37818        2.43264
H         -0.22064        5.13224        0.85843
Mg        -1.90775        1.11084        1.03940
H          3.72810        0.62511        0.35222
C          3.77211       -0.97632       -1.09638
C          3.14672       -0.29306        0.12928
C          3.68989       -0.10178       -2.35252
H          4.84376       -1.19185       -0.87799
H          3.25657       -1.94339       -1.27706
H          2.62873        0.11692       -2.58115
H          4.21909        0.86062       -2.18214
C          4.31831       -0.80176       -3.55962
H          3.27354       -0.97704        0.99596
H          5.40318       -0.97484       -3.39143
H          3.82164       -1.77769       -3.74871
H          4.19932       -0.16672       -4.46316
C         -4.69945        1.75807        0.78502
C         -6.02677        1.41768        0.62570
C         -6.07162        0.05199        0.57081
C         -4.76824       -0.39659        0.69532
N         -3.90616        0.66426        0.84184
C         -4.43706       -1.86857        0.61702
N         -3.82768       -2.38348        1.85409
C         -3.53176       -3.84519        1.85176
H         -6.87327        2.08741        0.54248
H         -4.33075        2.77150        0.85276
H         -6.96074       -0.55570        0.43643
H         -5.38786       -2.40903        0.42939
H         -3.78739       -2.02378       -0.25688
C         -2.52252       -4.21101        0.74232
C         -2.90542       -4.19595        3.21294
C         -4.80670       -4.71117        1.69434
H         -1.59777       -3.60774        0.85122
H         -2.24346       -5.28480        0.80176
H         -2.94749       -4.04710       -0.26903
H         -3.60313       -3.93537        4.03826
H         -2.68739       -5.28570        3.27935
H         -1.95658       -3.64073        3.36737
H         -5.52670       -4.50963        2.51588
H         -5.31343       -4.55235        0.72230
H         -4.54045       -5.79177        1.73048

