%chk=speciation88.chk
%nprocshared=16
%mem=32GB
#p opt=loose PM7 scf=xqc 

 speciation study

-2 1
Mg         1.14421        0.12168        0.27558
C          0.18359        1.38461        2.68361
C          2.44939        0.72916        2.88998
O          1.28020        0.72011        2.08854
C          0.40803        2.89422        2.82116
C          3.55343       -0.07366        2.22084
H         -0.68774        1.23064        2.01485
H         -0.08969        0.92223        3.66015
H          2.84193        1.76231        3.00589
H          2.25031        0.26553        3.88589
H          3.79699        0.37147        1.23396
H          4.46538       -0.03437        2.85783
H          3.24602       -1.12917        2.09570
H          0.70896        3.32277        1.84374
H         -0.52772        3.38357        3.15964
H          1.18997        3.11612        3.57719
H         -4.23687       -3.79292       -5.50363
C         -2.25379       -4.54525       -5.97303
C         -3.29165       -3.40046       -5.93892
C         -0.95440       -4.11667       -6.66032
H         -2.04395       -4.88138       -4.93621
H         -2.67865       -5.39745       -6.54010
H         -0.25679       -4.98233       -6.67613
H         -1.16315       -3.82390       -7.71325
C         -0.27932       -2.95768       -5.94101
H         -3.50382       -3.08385       -6.98282
H         -0.93555       -2.06419       -5.93943
H         -0.04026       -3.24705       -4.89601
H          0.65382       -2.69941       -6.47785
C          0.24890       -2.46418        0.88383
C         -0.42670       -3.61881        0.57037
C         -1.00321       -3.40602       -0.65788
C         -0.70448       -2.10514       -1.02474
N          0.10811       -1.54495       -0.08787
C         -1.20075       -1.44168       -2.29210
N         -2.50705       -1.97471       -2.76601
C         -3.75031       -1.62943       -2.00910
H         -0.48562       -4.51744        1.16500
H          0.82385       -2.30109        1.78486
H         -1.60483       -4.11693       -1.21182
H         -1.18844       -0.33591       -2.22100
H         -0.45257       -1.68874       -3.07514
C         -3.90309       -0.10908       -1.80905
C         -4.95561       -2.13660       -2.82295
C         -3.81960       -2.32343       -0.63142
H         -3.91715        0.41097       -2.78557
H         -4.85813        0.11781       -1.28443
H         -3.08376        0.30033       -1.18397
H         -4.89218       -3.23636       -2.97226
H         -5.90974       -1.91982       -2.29080
H         -4.99968       -1.64714       -3.81829
H         -3.73777       -3.42550       -0.74570
H         -3.04230       -1.94790        0.06106
H         -4.79277       -2.12053       -0.13546
Mg        -2.76013       -1.67529       -4.74279
H         -2.87071       -0.07977       -6.98289
C         -2.44778        1.35791       -5.41556
C         -3.16188        0.10063       -5.92470
C         -0.93001        1.17856       -5.43427
H         -2.72370        2.23361       -6.04657
H         -2.78194        1.56148       -4.37981
H         -0.65814        0.27606       -4.84801
H         -0.58173        1.04185       -6.48326
C         -0.21520        2.38302       -4.82250
H         -4.25672        0.29360       -5.90689
H         -0.44257        3.30868       -5.39268
H         -0.53176        2.51858       -3.76602
H          0.88277        2.21395       -4.83993
C          2.51867        2.42778       -0.88440
C          3.24221        2.89647       -1.96113
C          3.35805        1.84690       -2.84344
C          2.70208        0.77900       -2.26357
N          2.18295        1.13633       -1.06666
C          2.58635       -0.57999       -2.87903
N          3.93577       -1.12630       -3.10514
C          4.00461       -2.44900       -3.76888
H          3.64344        3.89327       -2.08674
H          2.25365        3.00221       -0.00901
H          3.86786        1.85802       -3.79853
H          2.01065       -1.22686       -2.18941
H          2.03938       -0.46357       -3.83621
C          3.50446       -2.36444       -5.22764
C          5.48423       -2.87345       -3.80409
C          3.20904       -3.51582       -2.99349
H          4.09308       -1.61844       -5.80346
H          3.60108       -3.35103       -5.73204
H          2.44079       -2.07448       -5.26735
H          5.89671       -2.93226       -2.77420
H          5.59949       -3.87054       -4.28412
H          6.09121       -2.14169       -4.38019
H          3.57073       -3.57349       -1.94402
H          2.12206       -3.29435       -2.98841
H          3.33431       -4.51426       -3.46482

