%chk=lowest10_c1_a1_speciation0_speciationDFT66b_rank08_E164.54.chk
%nprocshared=20
%mem=40GB
#p opt=loose PM7/gen scf=xqc 

lowest10_c1_a1_speciation0_speciationDFT66b_rank08_E164.54 DFT input

0 1
Na     -0.029650000000000     -2.345860000000000     -0.924360000000000
C       1.155400000000000     -0.009760000000000      0.980280000000000
C      -1.152870000000000      0.023940000000000      0.980290000000000
O       0.000890000000000     -0.004180000000000      0.165470000000000
C       2.395610000000000     -0.030010000000000      0.094180000000000
C      -2.395920000000000      0.018090000000000      0.097160000000000
H       1.202170000000000      0.909280000000000      1.607890000000000
H       1.181880000000000     -0.919510000000000      1.622380000000000
H      -1.197850000000000     -0.877020000000000      1.633510000000000
H      -1.178550000000000      0.952040000000000      1.595280000000000
H      -2.421820000000000     -0.900400000000000     -0.526990000000000
H      -3.308470000000000      0.042800000000000      0.730550000000000
H      -2.401250000000000      0.907700000000000     -0.568010000000000
H       2.419610000000000      0.869110000000000     -0.557190000000000
H       3.309640000000000     -0.033820000000000      0.722470000000000
H       2.400400000000000     -0.940040000000000     -0.542420000000000
Na      0.029540000000000      2.343440000000000     -0.929080000000000
Mg      3.545040000000000     -3.617310000000000      8.797180000000001
C       1.147290000000000     -3.320340000000000      9.890739999999999
C       0.197660000000000     -2.281750000000000     11.750750000000000
O       1.251390000000000     -2.254810000000000     10.815740000000000
C       0.066410000000000     -3.121890000000000      8.860659999999999
C       0.654440000000000     -1.619960000000000     13.045680000000001
H       2.642540000000000     -3.887000000000000     11.788610000000000
H       1.097220000000000     -4.325930000000000     10.358180000000001
H      -0.656840000000000     -1.707650000000000     11.338190000000001
H      -0.125610000000000     -3.315180000000000     12.007360000000000
H       0.996930000000000     -0.581680000000000     12.850080000000000
H      -0.191770000000000     -1.591630000000000     13.763640000000001
H       1.487760000000000     -2.190900000000000     13.506539999999999
H       0.185990000000000     -2.135400000000000      8.382790000000000
H       0.163950000000000     -3.923240000000000      8.100379999999999
H      -0.923500000000000     -3.185890000000000      9.349420000000000
H       3.582440000000000     -6.059540000000000      7.692230000000000
C       3.865240000000000     -4.964420000000000      5.831440000000000
C       3.224100000000000     -5.125110000000000      7.222020000000000
C       5.386930000000000     -4.773900000000000      5.878700000000000
H       3.633150000000000     -5.874560000000000      5.235660000000000
H       3.396840000000000     -4.111110000000000      5.318470000000000
H       5.630870000000000     -3.874620000000000      6.480930000000000
H       5.851710000000000     -5.667280000000000      6.341050000000000
C       5.994940000000000     -4.605940000000000      4.483350000000000
H       2.123810000000000     -5.192630000000000      7.085090000000000
H       5.776550000000000     -5.492670000000000      3.851430000000000
H       5.602060000000000     -3.698060000000000      3.981620000000000
H       7.098240000000000     -4.501310000000000      4.568130000000000
C       5.966540000000000     -5.039080000000000      9.545430000000000
C       6.877950000000000     -5.456440000000000     10.479419999999999
C       6.466140000000000     -4.935110000000000     11.681430000000001
C       5.306700000000000     -4.232020000000000     11.434030000000000
N       5.011110000000000     -4.292720000000000     10.105000000000000
C       4.508780000000000     -3.563650000000000     12.516489999999999
N       3.154450000000000     -4.116430000000000     12.649170000000000
C       2.953670000000000     -5.554090000000000     12.963850000000001
H       7.738380000000000     -6.077420000000000     10.294620000000000
H       5.989670000000000     -5.277370000000000      8.499910000000000
H       6.945610000000000     -5.073120000000000     12.640480000000000
H       5.030150000000000     -3.641080000000000     13.493220000000001
H       4.434200000000000     -2.476700000000000     12.318750000000000
C       3.830120000000000     -5.985630000000000     14.151410000000000
C       1.472790000000000     -5.734340000000000     13.352220000000001
C       3.221470000000000     -6.469510000000000     11.742039999999999
H       3.641860000000000     -5.325040000000000     15.024649999999999
H       3.612170000000000     -7.035650000000000     14.438160000000000
H       4.905500000000000     -5.927080000000000     13.888140000000000
H       0.809720000000000     -5.439070000000000     12.512060000000000
H       1.252200000000000     -6.796250000000000     13.596390000000000
H       1.217250000000000     -5.107360000000000     14.232490000000000
H       2.623380000000000     -6.144480000000000     10.863470000000000
H       4.282530000000000     -6.499260000000000     11.451560000000001
H       2.952340000000000     -7.520270000000000     11.975099999999999
Mg      5.310590000000000     -1.464740000000000      6.483700000000000
H       7.693640000000000     -2.270840000000000      5.690250000000000
C       8.152910000000000     -1.206970000000000      7.526760000000000
C       7.423970000000000     -1.327070000000000      6.207390000000000
C       7.714330000000000     -2.327030000000000      8.466510000000000
H       9.246680000000000     -1.253840000000000      7.343600000000000
H       7.914620000000000     -0.223020000000000      7.977370000000000
H       6.614630000000000     -2.292900000000000      8.586830000000001
H       7.975040000000000     -3.315650000000000      8.032080000000001
C       8.373550000000000     -2.170880000000000      9.832000000000001
H       7.663130000000000     -0.470330000000000      5.542460000000000
H       9.476990000000001     -2.230130000000000      9.732410000000000
H       8.093840000000000     -1.196870000000000     10.287789999999999
H       8.036400000000000     -2.976680000000000     10.509130000000001
C       3.649630000000000      0.995500000000000      4.220170000000000
C       4.016050000000000     -0.202990000000000      3.653720000000000
C       3.594820000000000     -1.202420000000000      4.502660000000000
C       3.012970000000000     -0.633370000000000      5.564410000000000
N       2.994280000000000      0.767350000000000      5.438350000000000
C       2.579520000000000     -1.356040000000000      6.805790000000000
N       3.676260000000000     -1.337920000000000      7.793800000000000
C       3.785940000000000     -0.231170000000000      8.778790000000001
H       4.568280000000000     -0.330470000000000      2.733350000000000
H       3.854140000000000      1.972570000000000      3.812510000000000
H       3.792370000000000     -2.249140000000000      4.357740000000000
H       2.403660000000000     -2.420500000000000      6.547210000000000
H       1.608220000000000     -0.986140000000000      7.169030000000000
C       2.438470000000000      0.458470000000000      9.078780000000000
C       4.301950000000000     -0.818370000000000     10.106120000000001
C       4.798880000000000      0.803790000000000      8.288449999999999
H       1.688750000000000     -0.280700000000000      9.423000000000000
H       2.560280000000000      1.214860000000000      9.882809999999999
H       2.045810000000000      0.977260000000000      8.182100000000000
H       5.248730000000000     -1.372120000000000      9.983070000000000
H       4.480460000000000     -0.019840000000000     10.858940000000000
H       3.558760000000000     -1.521200000000000     10.520020000000001
H       5.789310000000000      0.333320000000000      8.169380000000000
H       4.497060000000000      1.230580000000000      7.318740000000000
H       4.894200000000000      1.632690000000000      9.020690000000000

-C 0
6-31g(d,p)
****
-H 0
6-31g(d,p)
****
-Mg 0
6-31g(d,p)
****
-N 0
6-31+g(d,p)
****
-Na 0
6-31g(d,p)
****
-O 0
6-31+g(d,p)
****


