%chk=lowest10_c1_a1_speciation0_speciationDFT66b_rank07_E164.54.chk
%nprocshared=20
%mem=40GB
#p opt=loose PM7/gen scf=xqc 

lowest10_c1_a1_speciation0_speciationDFT66b_rank07_E164.54 DFT input

0 1
Na     -2.016590000000000      1.198640000000000     -0.924460000000000
C      -0.584020000000000     -0.995140000000000      0.980270000000000
C       0.598460000000000      0.986280000000000      0.979130000000000
O      -0.003180000000000      0.001440000000000      0.164190000000000
C      -1.223860000000000     -2.060950000000000      0.097610000000000
C       1.214500000000000      2.066200000000000      0.096950000000000
H       0.189650000000000     -1.494000000000000      1.607640000000000
H      -1.384520000000000     -0.562020000000000      1.622140000000000
H      -0.158550000000000      1.475120000000000      1.633830000000000
H       1.415540000000000      0.543920000000000      1.591780000000000
H       0.431770000000000      2.548190000000000     -0.526610000000000
H       1.692270000000000      2.843490000000000      0.731090000000000
H       1.987420000000000      1.626180000000000     -0.568430000000000
H      -0.458230000000000     -2.532530000000000     -0.554460000000000
H      -1.684880000000000     -2.848490000000000      0.731410000000000
H      -2.014110000000000     -1.610420000000000     -0.539960000000000
Na      2.015360000000000     -1.197500000000000     -0.928370000000000
Mg      7.083290000000000     -0.454730000000000      5.837180000000000
C       5.665580000000000      0.890370000000000      7.629760000000000
C       4.267170000000000      0.437400000000000      9.440619999999999
O       5.351920000000000     -0.019990000000000      8.666399999999999
C       6.373410000000000      2.130480000000000      8.109280000000000
C       3.546490000000000     -0.756770000000000     10.055450000000000
H       4.149620000000000     -0.913210000000000      6.848780000000000
H       4.812820000000000      1.130170000000000      6.960810000000000
H       4.659490000000000      1.077120000000000     10.257210000000001
H       3.516610000000000      1.000380000000000      8.842230000000001
H       4.251120000000000     -1.363600000000000     10.662770000000000
H       2.725470000000000     -0.395200000000000     10.709300000000001
H       3.108480000000000     -1.401560000000000      9.264780000000000
H       7.244350000000000      1.846640000000000      8.723089999999999
H       6.709220000000000      2.701080000000000      7.219700000000000
H       5.674970000000000      2.744280000000000      8.707900000000000
H       6.992160000000000      0.969230000000000      3.567700000000000
C       9.148590000000000      1.108850000000000      3.836490000000000
C       7.714430000000000      1.089010000000000      4.396340000000000
C       9.570589999999999     -0.217270000000000      3.190440000000000
H       9.212450000000000      1.917990000000000      3.075970000000000
H       9.845260000000000      1.368490000000000      4.647620000000000
H       9.499450000000000     -1.034420000000000      3.937510000000000
H       8.899550000000000     -0.436120000000000      2.336220000000000
C      11.003740000000001     -0.171460000000000      2.652970000000000
H       7.528770000000000      2.064320000000000      4.894590000000000
H      11.112480000000000      0.632900000000000      1.895020000000000
H      11.733140000000001      0.000520000000000      3.470740000000000
H      11.251490000000000     -1.141440000000000      2.170110000000000
C       6.424960000000000     -2.167130000000000      3.583530000000000
C       5.663220000000000     -3.141190000000000      2.993470000000000
C       4.744970000000000     -3.537160000000000      3.934830000000000
C       4.973740000000000     -2.774160000000000      5.059660000000000
N       6.024620000000000     -1.935600000000000      4.836150000000000
C       4.126230000000000     -2.865320000000000      6.295930000000000
N       3.433080000000000     -1.607790000000000      6.604860000000000
C       2.488260000000000     -1.007190000000000      5.628680000000000
H       5.769560000000000     -3.508330000000000      1.986510000000000
H       7.233130000000000     -1.637970000000000      3.117370000000000
H       3.974520000000000     -4.284740000000000      3.807290000000000
H       3.377270000000000     -3.678680000000000      6.199370000000000
H       4.749550000000000     -3.153570000000000      7.164620000000000
C       1.491880000000000     -2.056610000000000      5.108190000000000
C       1.703640000000000      0.093200000000000      6.370110000000000
C       3.217480000000000     -0.328690000000000      4.441450000000000
H       0.974260000000000     -2.546630000000000      5.960490000000000
H       0.734890000000000     -1.584780000000000      4.447160000000000
H       2.014160000000000     -2.835000000000000      4.516190000000000
H       2.393410000000000      0.874630000000000      6.752700000000000
H       0.977400000000000      0.590060000000000      5.690630000000000
H       1.148840000000000     -0.332040000000000      7.233050000000000
H       3.970050000000000      0.404430000000000      4.803740000000000
H       3.720200000000000     -1.048200000000000      3.777510000000000
H       2.493470000000000      0.209140000000000      3.796720000000000
Mg     10.459820000000001     -1.740080000000000      6.055960000000000
H      11.394489999999999     -2.999580000000000      3.935300000000000
C      10.379490000000001     -4.590950000000000      5.009000000000000
C      11.287850000000001     -3.382710000000000      4.971000000000000
C       8.970990000000000     -4.195940000000000      4.572940000000000
H      10.791250000000000     -5.376700000000000      4.341830000000000
H      10.355740000000001     -4.986610000000000      6.043840000000000
H       8.606650000000000     -3.373110000000000      5.217320000000000
H       8.984299999999999     -3.823480000000000      3.526450000000000
C       8.020820000000001     -5.382220000000000      4.688800000000000
H      12.294449999999999     -3.630200000000000      5.369550000000000
H       8.357270000000000     -6.207020000000000      4.027360000000000
H       7.977950000000000     -5.742700000000000      5.738980000000000
H       7.001200000000000     -5.081010000000000      4.386860000000000
C      13.070530000000000     -0.402380000000000      8.364390000000000
C      13.135650000000000      0.029650000000000      7.060010000000000
C      11.861470000000001      0.399750000000000      6.688450000000000
C      11.042040000000000      0.180650000000000      7.723170000000000
N      11.752330000000001     -0.311220000000000      8.832920000000000
C       9.545769999999999      0.283180000000000      7.681050000000000
N       8.971620000000000     -1.037710000000000      7.358010000000000
C       8.625620000000000     -1.994710000000000      8.440270000000000
H      14.018240000000000      0.038120000000000      6.434810000000000
H      13.897420000000000     -0.780960000000000      8.943690000000000
H      11.583190000000000      0.722740000000000      5.701500000000000
H       9.264939999999999      0.962570000000000      6.850130000000000
H       9.148870000000001      0.763410000000000      8.588950000000001
C       8.327769999999999     -1.311100000000000      9.791340000000000
C       7.350890000000000     -2.751730000000000      8.022500000000001
C       9.751659999999999     -3.014360000000000      8.613530000000001
H       7.522210000000000     -0.559010000000000      9.680130000000000
H       7.989510000000000     -2.059770000000000     10.538670000000000
H       9.230850000000000     -0.812790000000000     10.195729999999999
H       7.454430000000000     -3.242120000000000      7.039130000000000
H       7.089400000000000     -3.540940000000000      8.760710000000000
H       6.502390000000000     -2.049550000000000      7.954540000000000
H       9.898750000000000     -3.575030000000000      7.675220000000000
H      10.700830000000000     -2.521420000000000      8.877070000000000
H       9.500349999999999     -3.739510000000000      9.415559999999999

-C 0
6-31g(d,p)
****
-H 0
6-31g(d,p)
****
-Mg 0
6-31g(d,p)
****
-N 0
6-31+g(d,p)
****
-Na 0
6-31g(d,p)
****
-O 0
6-31+g(d,p)
****


