%chk=lowest10_c1_a1_speciation7_speciationDFT45_rank09_E187.25.chk
%nprocshared=20
%mem=40GB
#p opt=loose PM7/gen scf=xqc 

lowest10_c1_a1_speciation7_speciationDFT45_rank09_E187.25 DFT input

0 1
Na     -0.479080000000000     -1.208870000000000     -0.857270000000000
C      -2.502300000000000      0.904050000000000      0.372990000000000
C      -1.114200000000000      2.018820000000000     -1.158480000000000
O      -1.206400000000000      0.992970000000000     -0.187950000000000
C      -3.398570000000000     -0.022160000000000     -0.446660000000000
C      -0.705520000000000      3.349190000000000     -0.528510000000000
H      -2.402860000000000      0.474140000000000      1.392340000000000
H      -2.977410000000000      1.901320000000000      0.503630000000000
H      -0.331560000000000      1.723990000000000     -1.890290000000000
H      -2.053460000000000      2.138510000000000     -1.740880000000000
H       0.287460000000000      3.262940000000000     -0.039080000000000
H      -0.642020000000000      4.124670000000000     -1.320880000000000
H      -1.452950000000000      3.674990000000000      0.223560000000000
H      -2.963780000000000     -1.042990000000000     -0.492850000000000
H      -4.399080000000000     -0.082740000000000      0.030300000000000
H      -3.525420000000000      0.363510000000000     -1.478310000000000
C      -1.617550000000000     -0.933190000000000     -3.931560000000000
C      -0.400720000000000     -2.968890000000000     -3.662050000000000
O      -0.785180000000000     -1.725450000000000     -3.105270000000000
C      -2.970870000000000     -1.574050000000000     -4.237800000000000
C       0.434330000000000     -2.836700000000000     -4.934790000000000
H      -1.825830000000000     -0.003290000000000     -3.361620000000000
H      -1.092330000000000     -0.606080000000000     -4.852030000000000
H       0.246160000000000     -3.461710000000000     -2.904350000000000
H      -1.268420000000000     -3.646830000000000     -3.800000000000000
H       1.296410000000000     -2.159390000000000     -4.757630000000000
H       0.816040000000000     -3.837290000000000     -5.226880000000000
H      -0.181160000000000     -2.449940000000000     -5.771740000000000
H      -3.475810000000000     -1.867720000000000     -3.294020000000000
H      -3.608440000000000     -0.839290000000000     -4.772950000000000
H      -2.851590000000000     -2.460600000000000     -4.892770000000000
Na      0.584050000000000      1.254180000000000      1.328690000000000
C       1.528130000000000     -1.877100000000000      1.341230000000000
C       2.652550000000000     -0.665280000000000     -0.321980000000000
O       1.468400000000000     -0.791030000000000      0.439560000000000
C       0.404890000000000     -1.729350000000000      2.363610000000000
C       2.706100000000000     -1.661150000000000     -1.480540000000000
H       1.371170000000000     -2.831510000000000      0.795470000000000
H       2.487980000000000     -1.905500000000000      1.904180000000000
H       2.652950000000000      0.356810000000000     -0.758510000000000
H       3.564900000000000     -0.730360000000000      0.309640000000000
H       1.826490000000000     -1.530550000000000     -2.144020000000000
H       3.625910000000000     -1.481350000000000     -2.076280000000000
H       2.733140000000000     -2.704470000000000     -1.106010000000000
H      -0.578910000000000     -1.665870000000000      1.850770000000000
H       0.394890000000000     -2.605000000000000      3.046450000000000
H       0.551950000000000     -0.810730000000000      2.969490000000000
C       2.391600000000000      1.903800000000000      4.009620000000000
C       0.142180000000000      2.281030000000000      4.445620000000000
O       1.080200000000000      1.809950000000000      3.509060000000000
C       3.344100000000000      1.396220000000000      2.932640000000000
C      -1.248600000000000      2.111740000000000      3.843990000000000
H       2.657390000000000      2.960830000000000      4.235990000000000
H       2.515730000000000      1.262560000000000      4.910710000000000
H       0.185800000000000      1.686580000000000      5.385780000000000
H       0.301190000000000      3.362780000000000      4.653940000000000
H      -1.437720000000000      1.039000000000000      3.624530000000000
H      -2.023350000000000      2.474440000000000      4.550930000000000
H      -1.328260000000000      2.688310000000000      2.896710000000000
H       3.250080000000000      2.015530000000000      2.014280000000000
H       4.393490000000000      1.439570000000000      3.290510000000000
H       3.098510000000000      0.344890000000000      2.676850000000000
Mg     -6.510520000000000     -5.977350000000000     -1.047440000000000
H      -3.459950000000000     -6.971590000000000     -1.037260000000000
C      -4.342600000000000     -7.032790000000000      0.997200000000000
C      -4.187060000000000     -6.440380000000000     -0.394420000000000
C      -4.747330000000000     -8.507569999999999      0.926410000000000
H      -3.375990000000000     -6.927660000000000      1.529250000000000
H      -5.124120000000000     -6.462060000000000      1.545300000000000
H      -5.714710000000000     -8.608590000000000      0.396350000000000
H      -3.975100000000000     -9.077150000000000      0.366990000000000
C      -4.895040000000000     -9.104520000000001      2.322680000000000
H      -3.996370000000000     -5.346580000000000     -0.355550000000000
H      -3.946740000000000     -8.991550000000000      2.889210000000000
H      -5.713850000000000     -8.597049999999999      2.876130000000000
H      -5.137410000000000    -10.185520000000000      2.245040000000000
C      -8.109700000000000     -7.266720000000000      1.323490000000000
C      -9.112819999999999     -8.193149999999999      1.550860000000000
C      -9.531300000000000     -8.631500000000001      0.308460000000000
C      -8.768230000000001     -7.949890000000000     -0.612890000000000
N      -7.911500000000000     -7.122890000000000      0.006330000000000
C      -8.800300000000000     -8.038240000000000     -2.087570000000000
N      -7.418310000000000     -8.047290000000000     -2.588650000000000
C      -6.834150000000000     -9.330819999999999     -2.975830000000000
H      -9.486450000000000     -8.516230000000000      2.511930000000000
H      -7.544210000000000     -6.745060000000000      2.086380000000000
H     -10.307100000000000     -9.360110000000001      0.103820000000000
H      -9.247999999999999     -7.088590000000000     -2.410280000000000
H      -9.448740000000001     -8.849150000000000     -2.478290000000000
C      -7.352840000000000     -9.728490000000001     -4.369240000000000
C      -5.308260000000000     -9.140910000000000     -3.035340000000000
C      -7.135190000000000    -10.415609999999999     -1.933040000000000
H      -7.071350000000000     -8.962800000000000     -5.127510000000000
H      -6.924430000000000    -10.704230000000001     -4.677900000000000
H      -8.457929999999999     -9.817570000000000     -4.371030000000000
H      -4.909950000000000     -8.843800000000000     -2.043820000000000
H      -4.801740000000000    -10.069540000000000     -3.367930000000000
H      -5.027140000000000     -8.345560000000001     -3.737970000000000
H      -6.800570000000000    -10.070209999999999     -0.934550000000000
H      -8.218370000000000    -10.638550000000000     -1.879350000000000
H      -6.597610000000000    -11.350170000000000     -2.185870000000000
Mg     -7.936220000000000     -6.184630000000000     -4.048430000000000
H      -9.818149999999999     -5.397150000000000     -5.926750000000000
C     -10.649270000000000     -7.271350000000000     -5.118340000000000
C      -9.477130000000001     -6.378280000000000     -5.544890000000000
C     -11.604030000000000     -6.560740000000000     -4.152890000000000
H     -11.226820000000000     -7.546120000000000     -6.026010000000000
H     -10.253860000000000     -8.207010000000000     -4.668010000000000
H     -11.082310000000000     -6.241910000000000     -3.238330000000000
H     -12.014930000000000     -5.659490000000000     -4.655660000000000
C     -12.757429999999999     -7.468660000000000     -3.734200000000000
H      -8.923460000000000     -6.907430000000000     -6.350520000000000
H     -13.327800000000000     -7.811530000000000     -4.622940000000000
H     -12.372030000000001     -8.352490000000000     -3.181550000000000
H     -13.444610000000001     -6.907430000000000     -3.065600000000000
C      -6.344840000000000     -4.440560000000000     -7.012460000000000
C      -5.874460000000000     -5.721480000000000     -6.841680000000000
C      -5.548330000000000     -5.859630000000000     -5.508890000000000
C      -5.823300000000000     -4.714220000000000     -4.880580000000000
N      -6.328130000000000     -3.758410000000000     -5.784830000000000
C      -5.712880000000000     -4.484200000000000     -3.396240000000000
N      -6.990740000000000     -4.840770000000000     -2.737140000000000
C      -7.796250000000000     -3.716760000000000     -2.214420000000000
H      -5.797930000000000     -6.481250000000000     -7.609360000000000
H      -6.693130000000000     -4.020150000000000     -7.943830000000000
H      -5.177270000000000     -6.756890000000000     -5.061680000000000
H      -5.378150000000000     -3.446740000000000     -3.206940000000000
H      -4.907540000000000     -5.134650000000000     -2.991090000000000
C      -8.127260000000000     -2.698130000000000     -3.316850000000000
C      -9.114010000000000     -4.282060000000000     -1.672500000000000
C      -7.061470000000000     -3.028610000000000     -1.036160000000000
H      -8.657410000000000     -3.203320000000000     -4.152290000000000
H      -8.780659999999999     -1.897720000000000     -2.909980000000000
H      -7.214250000000000     -2.211210000000000     -3.712340000000000
H      -8.932330000000000     -5.029100000000000     -0.877970000000000
H      -9.744470000000000     -3.479110000000000     -1.237020000000000
H      -9.676230000000000     -4.760410000000000     -2.491490000000000
H      -6.875560000000000     -3.748410000000000     -0.208960000000000
H      -6.084680000000000     -2.599050000000000     -1.332210000000000
H      -7.676860000000000     -2.199800000000000     -0.628120000000000

-C 0
6-31g(d,p)
****
-H 0
6-31g(d,p)
****
-Mg 0
6-31g(d,p)
****
-N 0
6-31+g(d,p)
****
-Na 0
6-31g(d,p)
****
-O 0
6-31+g(d,p)
****


