%chk=lowest10_c1_a1_speciation7_speciationDFT66b_rank04_E208.30.chk
%nprocshared=20
%mem=40GB
#p opt=loose PM7/gen scf=xqc 

lowest10_c1_a1_speciation7_speciationDFT66b_rank04_E208.30 DFT input

0 1
Na     -0.179590000000000     -0.008630000000000      1.553890000000000
C       2.578700000000000      0.832020000000000      0.226500000000000
C       0.942490000000000      2.377170000000000     -0.443430000000000
O       1.221050000000000      1.027960000000000     -0.119900000000000
C       2.807030000000000      1.061500000000000      1.718710000000000
C       1.145220000000000      2.647110000000000     -1.933120000000000
H       2.840030000000000     -0.222680000000000     -0.004050000000000
H       3.267000000000000      1.460620000000000     -0.380550000000000
H      -0.122830000000000      2.572560000000000     -0.194710000000000
H       1.538530000000000      3.092150000000000      0.164380000000000
H       0.470060000000000      2.009920000000000     -2.542260000000000
H       0.913450000000000      3.711930000000000     -2.146590000000000
H       2.195550000000000      2.449020000000000     -2.229800000000000
H       2.184340000000000      0.364320000000000      2.318220000000000
H       3.875620000000000      0.881540000000000      1.958990000000000
H       2.555290000000000      2.103890000000000      2.000370000000000
C      -0.458710000000000      2.720560000000000      3.373640000000000
C      -1.847650000000000      0.983040000000000      4.239520000000000
O      -1.001130000000000      1.425500000000000      3.194580000000000
C       0.453460000000000      2.843420000000000      4.593750000000000
C      -3.100750000000000      1.839340000000000      4.415430000000000
H       0.171980000000000      2.919350000000000      2.481750000000000
H      -1.245900000000000      3.501790000000000      3.361390000000000
H      -2.192180000000000     -0.033530000000000      3.950990000000000
H      -1.294880000000000      0.851120000000000      5.192630000000000
H      -3.632160000000000      1.942150000000000      3.445790000000000
H      -3.777210000000000      1.350790000000000      5.147530000000000
H      -2.840860000000000      2.842380000000000      4.809500000000000
H       1.241600000000000      2.061660000000000      4.564570000000000
H       0.937910000000000      3.842480000000000      4.585830000000000
H      -0.128130000000000      2.755670000000000      5.533420000000000
Na      0.365710000000000     -0.331940000000000     -1.850590000000000
C      -1.130910000000000     -2.506020000000000      0.084740000000000
C      -2.573160000000000     -0.745220000000000     -0.479910000000000
O      -1.234280000000000     -1.138180000000000     -0.253780000000000
C       0.326750000000000     -2.937320000000000     -0.050940000000000
C      -3.336730000000000     -0.509650000000000      0.823240000000000
H      -1.436490000000000     -2.658760000000000      1.141500000000000
H      -1.733310000000000     -3.154040000000000     -0.590690000000000
H      -2.541720000000000      0.220620000000000     -1.028910000000000
H      -3.112280000000000     -1.457560000000000     -1.141390000000000
H      -2.825310000000000      0.259940000000000      1.437360000000000
H      -4.360550000000000     -0.149190000000000      0.588380000000000
H      -3.424210000000000     -1.448270000000000      1.407090000000000
H       0.979040000000000     -2.300570000000000      0.584620000000000
H       0.441740000000000     -3.994900000000000      0.267690000000000
H       0.659450000000000     -2.848290000000000     -1.106340000000000
C       0.088430000000000     -2.331640000000000     -4.458940000000000
C       2.327020000000000     -1.936770000000000     -3.985570000000000
O       0.998820000000000     -1.732420000000000     -3.569480000000000
C      -1.321370000000000     -2.046940000000000     -3.952860000000000
C       3.246330000000000     -1.289380000000000     -2.956380000000000
H       0.183280000000000     -1.897620000000000     -5.479690000000000
H       0.230690000000000     -3.435100000000000     -4.482860000000000
H       2.568350000000000     -3.022710000000000     -4.028790000000000
H       2.511640000000000     -1.450830000000000     -4.969830000000000
H       3.088180000000000     -1.756170000000000     -1.960420000000000
H       4.307080000000000     -1.420800000000000     -3.250410000000000
H       3.028880000000000     -0.201840000000000     -2.879550000000000
H      -1.502400000000000     -0.950690000000000     -3.917170000000000
H      -2.074960000000000     -2.514930000000000     -4.619410000000000
H      -1.445590000000000     -2.459390000000000     -2.930370000000000
Mg      7.805190000000000     -7.308910000000000     -2.236120000000000
C       5.408290000000000     -7.010960000000000     -1.142740000000000
C       4.457850000000000     -5.972410000000000      0.716810000000000
O       5.512110000000000     -5.945600000000000     -0.217570000000000
C       4.327280000000000     -6.812560000000000     -2.172630000000000
C       4.914370000000000     -5.310970000000000      2.011960000000000
H       6.902730000000000     -7.578530000000000      0.755450000000000
H       5.358660000000000     -8.016740000000000     -0.675540000000000
H       3.603540000000000     -5.398080000000000      0.303920000000000
H       4.134660000000000     -7.005960000000000      0.973290000000000
H       5.257130000000000     -4.272750000000000      1.816570000000000
H       4.068000000000000     -5.282700000000000      2.729680000000000
H       5.747520000000000     -5.882200000000000      2.472910000000000
H       4.446540000000000     -5.826000000000000     -2.650520000000000
H       4.425000000000000     -7.614160000000000     -2.932660000000000
H       3.337560000000000     -6.876740000000000     -1.683580000000000
H       7.842720000000000     -9.750529999999999     -3.340850000000000
C       8.126189999999999     -8.656370000000001     -5.202160000000000
C       7.484680000000000     -8.816310000000000     -3.811620000000000
C       9.647869999999999     -8.465710000000000     -5.154820000000000
H       7.894290000000000     -9.566900000000000     -5.797440000000000
H       7.657770000000000     -7.803450000000000     -5.715730000000000
H       9.891690000000001     -7.566250000000000     -4.552780000000000
H      10.112670000000000     -9.358960000000000     -4.692280000000000
C      10.256030000000001     -8.297900000000000     -6.550160000000000
H       6.384400000000000     -8.883580000000000     -3.948820000000000
H      10.037570000000001     -9.184570000000001     -7.182150000000000
H       9.863320000000000     -7.389950000000000     -7.051910000000000
H      11.359340000000000     -8.193379999999999     -6.465360000000000
C      10.226260000000000     -8.730530000000000     -1.487930000000000
C      11.138019999999999     -9.148260000000001     -0.554270000000000
C      10.726260000000000     -8.626700000000000      0.647630000000000
C       9.567040000000000     -7.923410000000000      0.400980000000000
N       9.271300000000000     -7.984310000000000     -0.928830000000000
C       8.769080000000001     -7.255150000000000      1.482950000000000
N       7.414850000000000     -7.808080000000000      1.615840000000000
C       7.214290000000000     -9.245810000000001      1.930220000000000
H      11.998110000000000     -9.769370000000000     -0.739240000000000
H      10.249300000000000     -8.969010000000001     -2.533660000000000
H      11.205940000000000     -8.764889999999999      1.606810000000000
H       9.290500000000000     -7.332420000000000      2.459780000000000
H       8.694279999999999     -6.168200000000000      1.285430000000000
C       8.090840000000000     -9.677310000000000      3.117690000000000
C       5.733420000000000     -9.426259999999999      2.318510000000000
C       7.482260000000000    -10.161090000000000      0.708320000000000
H       7.902750000000000     -9.016560000000000      3.990840000000000
H       7.872900000000000    -10.727290000000000      3.404570000000000
H       9.166169999999999     -9.618779999999999      2.854200000000000
H       5.070370000000000     -9.130750000000001      1.478380000000000
H       5.512860000000000    -10.488230000000000      2.562400000000000
H       5.477860000000000     -8.799469999999999      3.198910000000000
H       6.884230000000000     -9.836080000000001     -0.170290000000000
H       8.543329999999999    -10.190750000000000      0.417940000000000
H       7.213330000000000    -11.211930000000001      0.941280000000000
Mg      9.571130000000000     -5.155840000000000     -4.548740000000000
H      11.953270000000000     -5.962760000000000     -5.343370000000000
C      12.413340000000000     -4.898960000000000     -3.506830000000000
C      11.684139999999999     -5.018940000000000     -4.826060000000000
C      11.974710000000000     -6.018880000000000     -2.566890000000000
H      13.507050000000000     -4.946050000000000     -3.690230000000000
H      12.175310000000000     -3.914930000000000     -3.056250000000000
H      10.875040000000000     -5.984570000000000     -2.446380000000000
H      12.235170000000000     -7.007560000000000     -3.001310000000000
C      12.634119999999999     -5.862860000000000     -1.201430000000000
H      11.923159999999999     -4.162230000000000     -5.491080000000000
H      13.737550000000001     -5.922230000000000     -1.301080000000000
H      12.354559999999999     -4.888890000000000     -0.745490000000000
H      12.296960000000000     -6.668690000000000     -0.524330000000000
C       7.911400000000000     -2.696170000000000     -6.811240000000000
C       8.275240000000000     -3.894420000000000     -7.380560000000000
C       7.855630000000000     -4.894320000000000     -6.530460000000000
C       7.274860000000000     -4.325620000000000     -5.467630000000000
N       7.257340000000000     -2.924880000000000     -5.592460000000000
C       6.840460000000000     -5.048300000000000     -4.226650000000000
N       7.936950000000000     -5.030580000000000     -3.238340000000000
C       8.046770000000000     -3.923860000000000     -2.253370000000000
H       8.823420000000000     -4.020680000000000     -8.304449999999999
H       8.115119999999999     -1.718770000000000     -7.218440000000000
H       8.052370000000000     -5.941200000000000     -6.675970000000000
H       6.663950000000000     -6.112660000000000     -4.485320000000000
H       5.868990000000000     -4.677630000000000     -3.864070000000000
C       6.699580000000000     -3.234340000000000     -1.953950000000000
C       8.562709999999999     -4.510660000000000     -0.926180000000000
C       9.059500000000000     -2.888770000000000     -2.744040000000000
H       5.948280000000000     -3.972460000000000     -1.610950000000000
H       6.820030000000000     -2.476950000000000     -1.150710000000000
H       6.311640000000000     -2.717410000000000     -2.852430000000000
H       9.509160000000000     -5.064940000000000     -1.049410000000000
H       8.741800000000000     -3.711800000000000     -0.173890000000000
H       7.819140000000000     -5.212840000000000     -0.512040000000000
H      10.050039999999999     -3.358930000000000     -2.863060000000000
H       8.757730000000000     -2.462210000000000     -3.713800000000000
H       9.154400000000001     -2.059490000000000     -2.012240000000000

-C 0
6-31g(d,p)
****
-H 0
6-31g(d,p)
****
-Mg 0
6-31g(d,p)
****
-N 0
6-31+g(d,p)
****
-Na 0
6-31g(d,p)
****
-O 0
6-31+g(d,p)
****


