%chk=lowest10_c1_a1_speciation0_speciationDFT66b_rank01_E164.00.chk
%nprocshared=20
%mem=40GB
#p opt=loose PM7/gen scf=xqc 

lowest10_c1_a1_speciation0_speciationDFT66b_rank01_E164.00 DFT input

0 1
Na     -2.117770000000000      0.425440000000000     -1.318520000000000
C      -0.131730000000000      0.904150000000000      1.196230000000000
C       1.046290000000000      0.888020000000000     -0.788380000000000
O       0.096890000000000      0.194890000000000     -0.004340000000000
C      -1.152070000000000      0.150660000000000      2.041770000000000
C       1.280740000000000      0.127370000000000     -2.088830000000000
H       0.805940000000000      0.987960000000000      1.791840000000000
H      -0.549200000000000      1.914640000000000      0.983560000000000
H       0.674980000000000      1.904130000000000     -1.053760000000000
H       2.021790000000000      0.957480000000000     -0.255550000000000
H       0.334350000000000      0.046380000000000     -2.664740000000000
H       2.029400000000000      0.664330000000000     -2.709960000000000
H       1.662930000000000     -0.893410000000000     -1.875160000000000
H      -0.771770000000000     -0.862010000000000      2.294640000000000
H      -1.342500000000000      0.705670000000000      2.984590000000000
H      -2.111460000000000      0.051270000000000      1.490920000000000
Na      1.368620000000000     -1.923770000000000      0.765160000000000
Mg      5.536100000000000     -1.484710000000000      6.882070000000000
C       7.410070000000000     -0.929810000000000      8.675100000000000
C       7.717030000000000      0.507810000000000     10.485939999999999
O       6.778540000000000     -0.202980000000000      9.711770000000000
C       8.130170000000000     -2.162820000000000      9.154590000000001
C       7.043180000000000      1.729050000000000     11.100730000000000
H       6.605540000000000      1.284040000000000      7.893840000000000
H       8.044140000000001     -0.311200000000000      8.006150000000000
H       8.074909999999999     -0.151780000000000     11.302540000000000
H       8.579850000000000      0.876300000000000      9.887540000000000
H       6.165340000000000      1.422260000000000     11.708060000000000
H       7.766830000000000      2.259300000000000     11.754569999999999
H       6.703800000000000      2.430760000000000     10.310050000000000
H       7.448900000000000     -2.775160000000000      9.768409999999999
H       8.456410000000000     -2.738900000000000      8.264989999999999
H       9.010949999999999     -1.864800000000000      9.753190000000000
H       6.815020000000000     -2.117980000000000      4.612900000000000
C       5.857600000000000     -4.055230000000000      4.881610000000000
C       6.557540000000000     -2.803340000000000      5.441510000000000
C       4.498160000000000     -3.757540000000000      4.235510000000000
H       6.526450000000000     -4.515130000000000      4.121140000000000
H       5.734110000000000     -4.788380000000000      5.692740000000000
H       3.826060000000000     -3.287360000000000      4.982570000000000
H       4.644180000000000     -3.067010000000000      3.381260000000000
C       3.821210000000000     -5.021530000000000      3.698010000000000
H       7.494980000000000     -3.130250000000000      5.939840000000000
H       4.463480000000000     -5.517920000000000      2.940110000000000
H       3.605470000000000     -5.739200000000000      4.515800000000000
H       2.857340000000000     -4.751010000000000      3.215110000000000
C       4.381030000000000     -0.058830000000000      4.628140000000000
C       3.917790000000000      1.087790000000000      4.038170000000000
C       4.034560000000000      2.081010000000000      4.979660000000000
C       4.581460000000000      1.501420000000000      6.104430000000000
N       4.782230000000000      0.172100000000000      5.880660000000000
C       4.926670000000000      2.280750000000000      7.341000000000000
N       6.362290000000000      2.251900000000000      7.650290000000000
C       7.354970000000000      2.770390000000000      6.674670000000000
H       3.546060000000000      1.179130000000000      3.031260000000000
H       4.435230000000000     -1.023270000000000      4.161990000000000
H       3.772340000000000      3.122040000000000      4.852330000000000
H       4.596910000000000      3.336130000000000      7.244710000000000
H       4.365330000000000      1.885180000000000      8.209660000000000
C       6.943790000000000      4.158160000000000      6.155360000000000
C       8.700240000000001      2.899670000000000      7.416280000000000
C       7.578180000000000      1.800160000000000      5.486700000000000
H       6.778130000000000      4.851040000000000      7.007920000000000
H       7.730860000000000      4.578480000000000      5.494950000000000
H       6.008660000000000      4.095090000000000      5.563120000000000
H       9.032310000000001      1.911590000000000      7.798590000000000
H       9.493710000000000      3.280400000000000      6.737030000000000
H       8.609389999999999      3.592680000000000      8.279290000000000
H       7.837660000000000      0.781930000000000      5.848810000000000
H       6.702890000000000      1.723570000000000      4.824020000000000
H       8.404740000000000      2.159100000000000      4.839550000000000
Mg      2.734570000000000     -3.766200000000000      7.101060000000000
H       1.176740000000000     -3.945840000000000      4.979710000000000
C       0.306030000000000     -2.270770000000000      6.052830000000000
C       0.898170000000000     -3.661620000000000      6.015270000000000
C       1.352460000000000     -1.248740000000000      5.616520000000000
H      -0.580350000000000     -2.234210000000000      5.385590000000000
H      -0.024500000000000     -2.052380000000000      7.087800000000000
H       2.247600000000000     -1.345140000000000      6.260450000000000
H       1.667040000000000     -1.445870000000000      4.569460000000000
C       0.801020000000000      0.167150000000000      5.734190000000000
H       0.180560000000000     -4.409510000000000      6.414120000000000
H      -0.082510000000000      0.287900000000000      5.075790000000000
H       0.511680000000000      0.384180000000000      6.784770000000000
H       1.570670000000000      0.899750000000000      5.430510000000000
C       2.588080000000000     -6.696160000000000      9.409610000000001
C       2.929640000000000     -6.968560000000000      8.105230000000001
C       3.887200000000000     -6.050110000000000      7.733620000000000
C       4.107190000000000     -5.230920000000000      8.768340000000000
N       3.326120000000000     -5.600120000000000      9.878119999999999
C       4.944100000000000     -3.986390000000000      8.726190000000001
N       4.087230000000000     -2.828740000000000      8.403110000000000
C       3.431470000000000     -2.050610000000000      9.485400000000000
H       2.495690000000000     -7.737150000000000      7.480030000000000
H       1.846810000000000     -7.222990000000000      9.988939999999999
H       4.306050000000000     -5.970610000000000      6.746680000000000
H       5.672940000000000     -4.082900000000000      7.895320000000000
H       5.558430000000000     -3.882770000000000      9.634110000000000
C       4.172440000000000     -2.134450000000000     10.836490000000000
C       3.413210000000000     -0.568190000000000      9.067560000000000
C       1.985400000000000     -2.515950000000000      9.658659999999999
H       5.226560000000000     -1.812880000000000     10.725320000000000
H       3.693220000000000     -1.467170000000000     11.583840000000000
H       4.152460000000000     -3.165680000000000     11.240919999999999
H       2.936730000000000     -0.412850000000000      8.084110000000001
H       2.860500000000000      0.052890000000000      9.805770000000001
H       4.445590000000000     -0.184480000000000      8.999670000000000
H       1.426250000000000     -2.363000000000000      8.720340000000000
H       1.937750000000000     -3.584420000000000      9.922240000000000
H       1.483100000000000     -1.935740000000000     10.460720000000000

-C 0
6-31g(d,p)
****
-H 0
6-31g(d,p)
****
-Mg 0
6-31g(d,p)
****
-N 0
6-31+g(d,p)
****
-Na 0
6-31g(d,p)
****
-O 0
6-31+g(d,p)
****


