%chk=lowest10_c1_a1_speciation7_speciationDFT45_rank02_E185.99.chk
%nprocshared=20
%mem=40GB
#p opt=loose PM7/gen scf=xqc 

lowest10_c1_a1_speciation7_speciationDFT45_rank02_E185.99 DFT input

0 1
Na      0.124200000000000     -0.163880000000000      1.551390000000000
C      -1.980400000000000      1.807220000000000      0.226740000000000
C      -2.500940000000000     -0.382720000000000     -0.443050000000000
O      -1.471630000000000      0.533300000000000     -0.119910000000000
C      -2.293990000000000      1.890680000000000      1.718920000000000
C      -2.837000000000000     -0.342240000000000     -1.932610000000000
H      -1.197300000000000      2.560750000000000     -0.003290000000000
H      -2.868400000000000      2.089440000000000     -0.380760000000000
H      -2.137340000000000     -1.403080000000000     -0.194720000000000
H      -3.417740000000000     -0.224080000000000      0.165310000000000
H      -1.948190000000000     -0.608910000000000     -2.542510000000000
H      -3.644020000000000     -1.074890000000000     -2.145330000000000
H      -3.189790000000000      0.666750000000000     -2.229340000000000
H      -1.379050000000000      1.701290000000000      2.319170000000000
H      -2.673160000000000      2.906060000000000      1.958510000000000
H      -3.070590000000000      1.151280000000000      2.000680000000000
C      -2.098290000000000     -1.765840000000000      3.372420000000000
C       0.100730000000000     -2.099470000000000      4.238810000000000
O      -0.705800000000000     -1.585910000000000      3.194700000000000
C      -2.662880000000000     -1.039090000000000      4.592340000000000
C      -0.015060000000000     -3.613030000000000      4.414550000000000
H      -2.586600000000000     -1.320650000000000      2.480190000000000
H      -2.376880000000000     -2.837900000000000      3.360400000000000
H       1.153420000000000     -1.890140000000000      3.949760000000000
H      -0.060650000000000     -1.555020000000000      5.192170000000000
H       0.160680000000000     -4.124940000000000      3.444910000000000
H       0.747000000000000     -3.954720000000000      5.145940000000000
H      -1.013380000000000     -3.889380000000000      4.809610000000000
H      -2.380030000000000      0.034460000000000      4.564550000000000
H      -3.770200000000000     -1.119380000000000      4.583120000000000
H      -2.296230000000000     -1.499470000000000      5.531780000000000
Na      0.135280000000000      0.477180000000000     -1.848670000000000
C       2.764730000000000      0.264670000000000      0.084540000000000
C       1.960030000000000     -1.864560000000000     -0.479500000000000
O       1.631480000000000     -0.508520000000000     -0.253270000000000
C       2.409520000000000      1.742570000000000     -0.051160000000000
C       2.138600000000000     -2.643760000000000      0.823500000000000
H       3.050230000000000      0.076630000000000      1.141200000000000
H       3.626850000000000      0.066940000000000     -0.591240000000000
H       1.107350000000000     -2.319950000000000     -1.027950000000000
H       2.846050000000000     -1.975330000000000     -1.141510000000000
H       1.216700000000000     -2.586390000000000      1.438140000000000
H       2.338770000000000     -3.710470000000000      0.588260000000000
H       2.995340000000000     -2.250000000000000      1.407020000000000
H       1.531340000000000      1.989050000000000      0.583640000000000
H       3.267700000000000      2.370650000000000      0.268510000000000
H       2.167130000000000      1.986670000000000     -1.106720000000000
C       2.004100000000000      1.232640000000000     -4.459010000000000
C       0.542000000000000      2.973540000000000     -3.985930000000000
O       1.028670000000000      1.720730000000000     -3.570510000000000
C       2.462740000000000     -0.130310000000000     -3.952280000000000
C      -0.477810000000000      3.446820000000000     -2.955930000000000
H       1.581690000000000      1.097680000000000     -5.480070000000000
H       2.888370000000000      1.908000000000000     -4.482370000000000
H       1.362470000000000      3.724630000000000     -4.029040000000000
H       0.028980000000000      2.891290000000000     -4.970260000000000
H       0.005740000000000      3.539160000000000     -1.959760000000000
H      -0.891480000000000      4.434900000000000     -3.245960000000000
H      -1.312270000000000      2.716030000000000     -2.880220000000000
H       1.604060000000000     -0.835420000000000     -3.916860000000000
H       3.245420000000000     -0.548910000000000     -4.618120000000000
H       2.881350000000000     -0.031220000000000     -2.929550000000000
Mg     -5.689520000000000     -6.330630000000000      0.641850000000000
H      -4.423460000000000     -4.231060000000000     -1.430090000000000
C      -4.134900000000000     -6.323350000000000     -2.110380000000000
C      -4.255420000000000     -5.252010000000000     -1.038020000000000
C      -5.376330000000000     -6.349250000000000     -3.005900000000000
H      -3.232060000000000     -6.108110000000000     -2.716170000000000
H      -4.015440000000000     -7.313330000000000     -1.617720000000000
H      -6.276040000000000     -6.567470000000000     -2.397720000000000
H      -5.505930000000000     -5.357040000000000     -3.487950000000000
C      -5.251700000000000     -7.418030000000000     -4.087630000000000
H      -3.409150000000000     -5.294320000000000     -0.319500000000000
H      -4.340350000000000     -7.241220000000000     -4.696850000000000
H      -5.194190000000000     -8.428369999999999     -3.629130000000000
H      -6.138930000000000     -7.382270000000000     -4.754640000000000
C      -6.499870000000000     -8.986540000000000     -0.817900000000000
C      -7.630110000000000     -9.692840000000000     -1.191970000000000
C      -8.714340000000000     -8.978030000000000     -0.718310000000000
C      -8.193640000000000     -7.876560000000000     -0.076910000000000
N      -6.852900000000000     -7.887860000000000     -0.137340000000000
C      -8.909599999999999     -6.780320000000000      0.608060000000000
N      -8.268640000000000     -5.505760000000000      0.253400000000000
C      -8.904790000000000     -4.675450000000000     -0.768590000000000
H      -7.657330000000000    -10.615959999999999     -1.752980000000000
H      -5.477290000000000     -9.256620000000000     -1.052990000000000
H      -9.761080000000000     -9.237410000000001     -0.826470000000000
H      -8.712360000000000     -6.947770000000000      1.675520000000000
H     -10.010770000000001     -6.807090000000000      0.476010000000000
C     -10.090690000000000     -3.917650000000000     -0.145550000000000
C      -7.853440000000000     -3.663420000000000     -1.257060000000000
C      -9.346050000000000     -5.517490000000000     -1.973230000000000
H      -9.745820000000000     -3.261840000000000      0.685990000000000
H     -10.590380000000000     -3.285950000000000     -0.908540000000000
H     -10.840000000000000     -4.622970000000000      0.267020000000000
H      -6.982170000000000     -4.185440000000000     -1.702470000000000
H      -8.284030000000000     -2.968900000000000     -2.006570000000000
H      -7.465390000000000     -3.053270000000000     -0.430930000000000
H      -8.480259999999999     -6.092240000000000     -2.358330000000000
H     -10.144620000000000     -6.233420000000000     -1.698220000000000
H      -9.726580000000000     -4.861900000000000     -2.780500000000000
Mg     -8.014950000000001     -4.979520000000000      2.604360000000000
H      -9.492760000000001     -4.892300000000000      4.949210000000000
C     -10.879519999999999     -5.804150000000000      3.499240000000000
C      -9.751590000000000     -4.834520000000000      3.874780000000000
C     -10.596660000000000     -7.237200000000000      3.962900000000000
H     -11.811980000000000     -5.464190000000000      3.997110000000000
H     -11.045130000000000     -5.768100000000000      2.401120000000000
H      -9.667520000000000     -7.624130000000000      3.518810000000000
H     -10.485780000000000     -7.239670000000000      5.068150000000000
C     -11.725940000000000     -8.186890000000000      3.572070000000000
H     -10.098150000000000     -3.804530000000000      3.641050000000000
H     -12.689959999999999     -7.847940000000000      4.006270000000000
H     -11.819830000000000     -8.240580000000000      2.465990000000000
H     -11.501390000000001     -9.204820000000000      3.956250000000000
C      -7.170170000000000     -1.941400000000000      4.705450000000000
C      -7.633590000000000     -1.603260000000000      3.455630000000000
C      -6.942360000000000     -2.373680000000000      2.544380000000000
C      -6.098920000000000     -3.167310000000000      3.208440000000000
N      -6.185810000000000     -2.937170000000000      4.596070000000000
C      -5.238390000000000     -4.237950000000000      2.590950000000000
N      -5.983630000000000     -5.517430000000000      2.547130000000000
C      -5.530860000000000     -6.573240000000000      3.477720000000000
H      -8.411440000000001     -0.882590000000000      3.236500000000000
H      -7.518300000000000     -1.521900000000000      5.637270000000000
H      -7.099220000000000     -2.355610000000000      1.487090000000000
H      -4.274360000000000     -4.293680000000000      3.130490000000000
H      -4.981170000000000     -3.937050000000000      1.552090000000000
C      -5.553220000000000     -6.088710000000000      4.936330000000000
C      -6.486860000000000     -7.764920000000000      3.353490000000000
C      -4.114710000000000     -7.066020000000000      3.086540000000000
H      -6.574350000000000     -5.743250000000000      5.204860000000000
H      -5.265460000000000     -6.918330000000000      5.616100000000000
H      -4.837470000000000     -5.260020000000000      5.104050000000000
H      -6.514370000000000     -8.149480000000001      2.317280000000000
H      -6.170640000000000     -8.601350000000000      4.010960000000000
H      -7.503500000000000     -7.456070000000000      3.647740000000000
H      -4.107810000000000     -7.475680000000000      2.052590000000000
H      -3.353520000000000     -6.263260000000000      3.133790000000000
H      -3.784380000000000     -7.875340000000000      3.770680000000000

-C 0
6-31g(d,p)
****
-H 0
6-31g(d,p)
****
-Mg 0
6-31g(d,p)
****
-N 0
6-31+g(d,p)
****
-Na 0
6-31g(d,p)
****
-O 0
6-31+g(d,p)
****


