%chk=lowest10_c1_a1_speciation7_speciationDFT133_rank03_E221.85.chk
%nprocshared=20
%mem=40GB
#p opt=loose PM7/gen scf=xqc 

lowest10_c1_a1_speciation7_speciationDFT133_rank03_E221.85 DFT input

0 1
Na     -1.373680000000000      0.516880000000000      0.499560000000000
C       0.101780000000000      1.840950000000000     -1.978220000000000
C      -0.395840000000000     -0.389090000000000     -2.520980000000000
O      -0.021970000000000      0.515500000000000     -1.498830000000000
C      -1.232890000000000      2.580230000000000     -1.913500000000000
C       0.827630000000000     -0.977920000000000     -3.220960000000000
H       0.822850000000000      2.374070000000000     -1.322710000000000
H       0.528080000000000      1.883030000000000     -3.004740000000000
H      -0.961570000000000     -1.220600000000000     -2.048070000000000
H      -1.083320000000000      0.070080000000000     -3.264120000000000
H       1.462460000000000     -1.534250000000000     -2.499520000000000
H       0.492730000000000     -1.681610000000000     -4.012070000000000
H       1.433180000000000     -0.178250000000000     -3.694620000000000
H      -1.606250000000000      2.617290000000000     -0.868270000000000
H      -1.095660000000000      3.619120000000000     -2.279620000000000
H      -1.991140000000000      2.081900000000000     -2.550590000000000
C      -4.199580000000000     -0.005280000000000     -1.098480000000000
C      -4.544190000000000     -0.058590000000000      1.263020000000000
O      -3.619540000000000     -0.003470000000000      0.192550000000000
C      -5.081810000000000      1.210870000000000     -1.379310000000000
C      -5.380650000000000     -1.337090000000000      1.283130000000000
H      -3.355310000000000      0.039350000000000     -1.818160000000000
H      -4.723260000000000     -0.959230000000000     -1.313060000000000
H      -3.939870000000000     -0.055950000000000      2.195880000000000
H      -5.174070000000000      0.853690000000000      1.313550000000000
H      -4.718840000000000     -2.227860000000000      1.239490000000000
H      -5.971370000000000     -1.371840000000000      2.222360000000000
H      -6.092060000000000     -1.355800000000000      0.433160000000000
H      -4.521970000000000      2.147860000000000     -1.174540000000000
H      -5.385640000000000      1.200330000000000     -2.447230000000000
H      -6.003360000000000      1.182090000000000     -0.763800000000000
Na      1.851970000000000     -0.376290000000000     -0.375220000000000
C       0.742640000000000      0.115250000000000      2.660070000000000
C       0.107370000000000     -1.997870000000000      1.864710000000000
O       0.417240000000000     -0.661060000000000      1.525070000000000
C       1.411220000000000      1.406910000000000      2.197520000000000
C      -1.313490000000000     -2.143560000000000      2.409060000000000
H      -0.182470000000000      0.387150000000000      3.211140000000000
H       1.457700000000000     -0.405150000000000      3.335980000000000
H       0.171170000000000     -2.596350000000000      0.930160000000000
H       0.854130000000000     -2.435620000000000      2.561980000000000
H      -2.052060000000000     -1.774480000000000      1.667990000000000
H      -1.520870000000000     -3.214990000000000      2.608840000000000
H      -1.433880000000000     -1.585300000000000      3.359400000000000
H       0.748940000000000      1.954490000000000      1.492930000000000
H       1.620310000000000      2.060680000000000      3.070520000000000
H       2.370860000000000      1.184010000000000      1.685750000000000
C       4.906080000000000     -0.936750000000000      0.733700000000000
C       4.884860000000000      0.919170000000000     -0.662160000000000
O       4.104330000000000     -0.056210000000000     -0.015300000000000
C       3.991440000000000     -1.969940000000000      1.382590000000000
C       3.942720000000000      1.850060000000000     -1.417740000000000
H       5.626350000000000     -1.475780000000000      0.078100000000000
H       5.439800000000000     -0.390730000000000      1.543400000000000
H       5.452520000000000      1.528540000000000      0.076490000000000
H       5.573480000000000      0.448820000000000     -1.399330000000000
H       3.240850000000000      2.336390000000000     -0.706700000000000
H       4.518120000000000      2.637390000000000     -1.947440000000000
H       3.352070000000000      1.273910000000000     -2.162930000000000
H       3.440790000000000     -2.539180000000000      0.602480000000000
H       4.582240000000000     -2.680200000000000      1.997130000000000
H       3.253210000000000     -1.462170000000000      2.036970000000000
Mg     -5.225100000000000     -8.948689999999999     -4.634860000000000
C      -4.333540000000000    -11.524450000000000     -3.501370000000000
C      -6.250610000000000    -11.044639999999999     -2.202400000000000
O      -5.346450000000000    -10.606550000000000     -3.174350000000000
C      -4.704590000000000    -12.327890000000000     -4.734880000000000
C      -7.476530000000000    -10.140200000000000     -2.273680000000000
H      -3.413460000000000    -10.943680000000001     -3.728540000000000
H      -4.085190000000000    -12.191000000000001     -2.672220000000000
H      -6.571320000000000    -12.093760000000000     -2.371920000000000
H      -5.797260000000000    -10.919470000000000     -1.207250000000000
H      -7.985870000000000    -10.261630000000000     -3.251080000000000
H      -8.182940000000000    -10.391610000000000     -1.457500000000000
H      -7.183930000000000     -9.073110000000000     -2.179100000000000
H      -4.851160000000000    -11.650570000000000     -5.603110000000000
H      -3.883420000000000    -13.038770000000000     -4.967830000000000
H      -5.636740000000000    -12.897169999999999     -4.546830000000000
H      -7.449330000000000     -9.421590000000000     -6.042810000000000
C      -7.402440000000000     -7.257260000000000     -6.487730000000000
C      -7.400800000000000     -8.434680000000000     -5.538070000000000
C      -6.270850000000000     -7.349630000000000     -7.521360000000000
H      -8.382820000000001     -7.246840000000000     -6.998040000000000
H      -7.290780000000000     -6.325170000000000     -5.894060000000000
H      -5.281030000000000     -7.334660000000000     -7.028680000000000
H      -6.355420000000000     -8.296590000000000     -8.096050000000000
C      -6.336240000000000     -6.169260000000000     -8.481949999999999
H      -8.144489999999999     -8.333320000000001     -4.724490000000000
H      -7.318070000000000     -6.162810000000000     -8.999639999999999
H      -6.207870000000000     -5.214990000000000     -7.926650000000000
H      -5.529920000000000     -6.251340000000000     -9.240600000000001
C      -3.232900000000000     -9.076890000000001     -6.906590000000000
C      -2.031520000000000     -8.501530000000001     -7.255680000000000
C      -1.629930000000000     -7.730880000000000     -6.174130000000000
C      -2.606140000000000     -7.870290000000000     -5.214250000000000
N      -3.574740000000000     -8.651650000000000     -5.685450000000000
C      -2.626780000000000     -7.277590000000000     -3.834130000000000
N      -3.972750000000000     -7.285030000000000     -3.227830000000000
C      -4.643290000000000     -5.972870000000000     -3.164060000000000
H      -1.518680000000000     -8.623860000000001     -8.197329999999999
H      -3.841200000000000     -9.739960000000000     -7.511890000000000
H      -0.739310000000000     -7.126360000000000     -6.100080000000000
H      -1.998180000000000     -7.918390000000000     -3.217020000000000
H      -2.127410000000000     -6.296190000000000     -3.816430000000000
C      -4.637000000000000     -5.302990000000000     -4.543390000000000
C      -6.115910000000000     -6.173510000000000     -2.751770000000000
C      -3.965020000000000     -5.083090000000000     -2.106690000000000
H      -5.122020000000000     -5.981400000000000     -5.264080000000000
H      -5.185210000000000     -4.342020000000000     -4.514880000000000
H      -3.611860000000000     -5.103180000000000     -4.907350000000000
H      -6.206080000000000     -6.632480000000000     -1.762180000000000
H      -6.645090000000000     -5.198200000000000     -2.695400000000000
H      -6.653470000000000     -6.823400000000000     -3.466940000000000
H      -3.981590000000000     -5.579530000000000     -1.113670000000000
H      -2.911590000000000     -4.872000000000000     -2.364590000000000
H      -4.490030000000000     -4.110460000000000     -2.021500000000000
Mg     -3.669860000000000     -8.731019999999999     -1.113860000000000
C      -1.984410000000000     -7.535060000000000      1.160050000000000
C      -1.048260000000000     -6.277050000000000     -0.629010000000000
O      -1.963090000000000     -7.274780000000000     -0.227860000000000
C      -2.634020000000000     -6.417190000000000      1.966420000000000
C       0.399740000000000     -6.557430000000000     -0.238010000000000
H      -2.580330000000000     -8.454000000000001      1.289080000000000
H      -0.992240000000000     -7.803370000000000      1.564900000000000
H      -1.063470000000000     -6.279410000000000     -1.735200000000000
H      -1.385440000000000     -5.268690000000000     -0.313510000000000
H       0.690210000000000     -7.586190000000000     -0.536350000000000
H       1.057960000000000     -5.832820000000000     -0.757300000000000
H       0.542120000000000     -6.428220000000000      0.852370000000000
H      -3.645340000000000     -6.185970000000000      1.586490000000000
H      -2.721240000000000     -6.739130000000000      3.025020000000000
H      -2.017350000000000     -5.501440000000000      1.918260000000000
H      -5.215410000000000     -6.964690000000000      0.264840000000000
C      -5.518780000000000     -8.603660000000000      1.634220000000000
C      -5.357050000000000     -8.061120000000001      0.212400000000000
C      -6.508870000000000     -7.784460000000000      2.475240000000000
H      -5.858850000000000     -9.656900000000000      1.599400000000000
H      -4.550940000000000     -8.558710000000000      2.160490000000000
H      -6.535610000000000     -8.226990000000001      3.493990000000000
H      -6.145770000000000     -6.736590000000000      2.564880000000000
C      -7.928430000000000     -7.778170000000000      1.912620000000000
H      -6.300940000000000     -8.253600000000000     -0.322690000000000
H      -7.961570000000000     -7.280650000000000      0.921290000000000
H      -8.308859999999999     -8.816860000000000      1.820430000000000
H      -8.590610000000000     -7.211680000000000      2.600400000000000
C      -4.261370000000000    -14.519890000000000     -0.367020000000000
C      -3.454680000000000    -14.710110000000000      0.738000000000000
C      -3.048720000000000    -13.459450000000000      1.164960000000000
C      -3.592380000000000    -12.598140000000001      0.326430000000000
N      -4.368950000000000    -13.268530000000000     -0.625840000000000
C      -3.401680000000000    -11.119949999999999      0.356940000000000
N      -2.797490000000000    -10.616280000000000     -0.878960000000000
C      -1.346780000000000    -10.917579999999999     -1.129590000000000
H      -3.176700000000000    -15.658750000000000      1.173320000000000
H      -4.743630000000000    -15.281929999999999     -0.957780000000000
H      -2.397600000000000    -13.218010000000000      1.990550000000000
H      -2.850150000000000    -10.768840000000001      1.249080000000000
H      -4.401300000000000    -10.688340000000000      0.431740000000000
C      -1.215510000000000    -12.320259999999999     -1.749970000000000
C      -0.746400000000000     -9.942040000000000     -2.156100000000000
C      -0.478550000000000    -10.834059999999999      0.146000000000000
H      -1.786670000000000    -12.376640000000000     -2.698130000000000
H      -0.156230000000000    -12.552420000000000     -1.982610000000000
H      -1.574730000000000    -13.111750000000001     -1.077040000000000
H      -0.747340000000000     -8.911040000000000     -1.765830000000000
H       0.317670000000000    -10.197860000000000     -2.367410000000000
H      -1.286400000000000     -9.995200000000001     -3.122900000000000
H      -0.507040000000000     -9.816580000000000      0.577720000000000
H      -0.803690000000000    -11.564790000000000      0.910870000000000
H       0.581290000000000    -11.070660000000000     -0.090200000000000

-C 0
6-31g(d,p)
****
-H 0
6-31g(d,p)
****
-Mg 0
6-31g(d,p)
****
-N 0
6-31+g(d,p)
****
-Na 0
6-31g(d,p)
****
-O 0
6-31+g(d,p)
****


