%chk=speciationDFT1.chk
%nprocshared=32
%mem=64GB
#p opt=loose wb97xd/gen scf=xqc freq

speciation study

0 1
Mg -0.165228 0.549184 -0.563070
H -2.228559 1.949967 -1.290355
C -3.057182 0.403108 0.006067
C -2.163949 0.883920 -1.107624
C -4.547920 0.594024 -0.358030
H -2.875890 -0.668094 0.221866
H -2.843113 0.950989 0.944311
H -4.739741 1.659754 -0.569685
H -4.768084 0.055783 -1.295720
C -5.466361 0.102145 0.763358
H -2.292584 0.341822 -2.036882
H -5.305180 -0.961804 0.965443
H -5.277247 0.647038 1.693934
H -6.519517 0.237337 0.505688
C 2.409947 3.236807 -0.051459
C 1.372128 2.946869 0.832777
C 1.311395 1.517979 0.941176
C 2.357702 1.040288 0.067439
N 3.010912 2.074644 -0.522746
C 2.643235 -0.401873 -0.265560
N 1.415228 -1.076075 -0.704212
C 1.007033 -2.232006 0.043177
H 0.752271 3.633146 1.352969
H 2.759396 4.188822 -0.382878
H 0.871108 0.984124 1.759878
H 3.143134 -0.885692 0.598680
H 3.365978 -0.447698 -1.116024
C 0.614939 -1.945732 1.534424
C -0.252726 -2.801719 -0.675043
C 2.097752 -3.347432 0.059277
H -0.263370 -1.297473 1.586104
H 0.390198 -2.866250 2.067165
H 1.438879 -1.439349 2.042359
H -0.008950 -3.010037 -1.721531
H -0.600520 -3.716412 -0.201103
H -1.072766 -2.074052 -0.673650
H 2.454285 -3.513998 -0.960900
H 2.954267 -3.043245 0.662325
H 1.709806 -4.283135 0.453684

-H 0
6-31g(d,p)
****
-C 0
6-31g(d,p)
****
-Mg 0
6-31g(d,p)
****
-N 0
6-31+g(d,p)
****


