%chk=speciationDFT41.chk
%nprocshared=32
%mem=64GB
#p opt=loose wb97xd/gen scf=xqc freq

speciation study

0 1
Mg 2.067164 1.067299 0.211232
C 1.117711 -1.347608 -1.462759
C 0.483711 0.820084 -2.370147
O 0.714822 0.014582 -1.204965
C 2.375655 -1.428141 -2.298373
C -0.763377 0.379182 -3.108221
H 1.261772 -1.740900 -0.422187
H 0.254244 -1.878062 -1.910312
H 0.361295 1.839102 -1.919608
H 1.387533 0.800723 -2.999897
H -1.680310 0.478290 -2.482989
H -0.945826 1.012942 -3.982406
H -0.702472 -0.658384 -3.450334
H 3.103823 -0.648842 -2.012021
H 2.875458 -2.392421 -2.138465
H 2.182090 -1.330185 -3.369008
H 3.798291 1.195811 -1.795276
C 5.042732 0.931562 -0.020275
C 3.877586 1.529879 -0.770599
C 5.102301 -0.598921 -0.172455
H 5.994382 1.365742 -0.385282
H 4.992382 1.199531 1.053258
H 4.125855 -1.048658 0.107302
H 5.266276 -0.861214 -1.231890
C 6.211487 -1.201309 0.693015
H 3.886391 2.616130 -0.759155
H 7.192837 -0.808326 0.415316
H 6.050475 -0.975543 1.753145
H 6.243080 -2.290716 0.591450
C 2.536509 -1.093563 2.177641
C 1.713827 0.062874 2.287994
C 0.363043 -0.412141 2.076222
C 0.479272 -1.794092 1.824644
N 1.801926 -2.200635 1.877783
C -0.611908 -2.751621 1.452264
N -1.087999 -2.357576 0.128682
C -2.086612 -3.183185 -0.477779
H 1.967571 0.967328 2.811356
H 3.598321 -1.151979 2.315353
H -0.512919 0.162788 2.348498
H -0.220553 -3.795270 1.444693
H -1.416919 -2.722847 2.223868
C -3.248370 -3.627636 0.464547
C -2.698862 -2.386937 -1.664932
C -1.447626 -4.489393 -1.057400
H -3.683880 -2.758386 0.962566
H -4.032762 -4.137747 -0.090589
H -2.880219 -4.307229 1.234110
H -1.927393 -2.146936 -2.400202
H -3.481105 -2.957584 -2.162419
H -3.144096 -1.439877 -1.317457
H -0.629413 -4.231312 -1.731890
H -1.021554 -5.089281 -0.251157
H -2.177593 -5.088312 -1.594635
Mg -1.169556 -0.104858 0.016939
C 0.869742 3.081162 1.023500
C 1.174165 3.820947 -0.150820
C 0.018113 3.800812 -0.947157
C -0.951400 3.039704 -0.224393
N -0.458984 2.648241 0.977804
C -2.311466 2.676849 -0.752746
N -2.816902 1.349995 -0.417034
C -3.781076 1.320528 0.666396
H 2.090232 4.317842 -0.367375
H 1.407774 3.067109 1.952367
H -0.124156 4.274008 -1.883959
H -3.020564 3.484843 -0.455664
H -2.273395 2.716610 -1.870784
C -5.122086 1.989662 0.225050
C -4.092059 -0.167881 0.989757
C -3.311236 2.000967 1.977156
H -5.463889 1.540676 -0.710086
H -5.894414 1.869452 0.981242
H -4.980456 3.056501 0.046036
H -3.247194 -0.660923 1.492829
H -4.953088 -0.253544 1.651994
H -4.314986 -0.711889 0.064175
H -2.320105 1.625069 2.269253
H -3.177068 3.076379 1.831263
H -4.008574 1.842677 2.795201

-C 0
6-31g(d,p)
****
-Mg 0
6-31g(d,p)
****
-N 0
6-31+g(d,p)
****
-H 0
6-31g(d,p)
****
-O 0
6-31+g(d,p)
****


