%chk=speciationDFT96.chk
%nprocshared=32
%mem=64GB
#p opt=loose wb97xd/gen scf=xqc freq

speciation study

0 1
Mg -0.349843 0.032914 -0.237138
C -2.258652 2.148576 0.844278
C -1.029101 1.009283 2.592358
O -1.039946 1.574403 1.286271
C -2.653882 3.353164 1.692892
C -1.889420 -0.236223 2.700507
H -1.987043 2.448182 -0.194518
H -3.053175 1.382606 0.810136
H 0.060723 0.759051 2.686084
H -1.302111 1.783405 3.323094
H -1.453680 -1.047492 2.064717
H -1.896542 -0.630944 3.718512
H -2.918540 -0.069118 2.383114
H -1.781520 3.986646 1.898046
H -3.399097 3.967092 1.180847
H -3.075163 3.051114 2.655996
H -2.248743 0.949198 -1.785610
C -3.098667 -0.899883 -0.997356
C -1.993260 -0.084658 -1.605305
C -4.375156 -0.853263 -1.869841
H -2.779898 -1.956118 -0.883215
H -3.347381 -0.545047 0.020830
H -4.698739 0.193418 -1.993890
H -4.136115 -1.218459 -2.883142
C -5.500949 -1.688861 -1.255078
H -1.568501 -0.523644 -2.497214
H -5.196278 -2.735203 -1.144836
H -5.769724 -1.317880 -0.261193
H -6.400135 -1.666974 -1.874946
C 4.346024 0.935695 -0.217848
C 4.558204 -0.282319 -0.893177
C 3.638765 -1.205494 -0.338416
C 2.905989 -0.497790 0.637466
N 3.342894 0.806978 0.716614
C 1.869236 -0.987242 1.605288
N 0.605495 -1.488441 1.084331
C 0.564299 -2.801966 0.493909
H 5.271087 -0.478131 -1.650613
H 4.861989 1.857963 -0.345774
H 3.546039 -2.229135 -0.595902
H 1.586202 -0.131945 2.277177
H 2.352510 -1.734567 2.278551
C 1.611178 -3.803915 1.052792
C -0.853414 -3.385946 0.815960
C 0.709622 -2.784506 -1.063074
H 1.545084 -3.853778 2.141402
H 1.460937 -4.803272 0.649570
H 2.624616 -3.475161 0.794010
H -1.629981 -2.693622 0.476119
H -1.003107 -4.346356 0.329973
H -0.964538 -3.508148 1.894069
H -0.177745 -2.350910 -1.535521
H 1.585019 -2.179477 -1.333443
H 0.846923 -3.784497 -1.465853
C 0.699247 1.742820 -2.472701
C 1.269525 2.581664 -0.293888
O 0.301370 1.914513 -1.111557
C 1.569277 0.511308 -2.625412
C 0.823117 4.032801 -0.162612
H -0.280748 1.639814 -2.980452
H 1.197762 2.660742 -2.822347
H 1.252976 2.033751 0.677774
H 2.291379 2.477464 -0.704612
H -0.191064 4.085603 0.250838
H 1.492613 4.579267 0.508575
H 0.816140 4.539606 -1.130402
H 2.241081 0.370273 -1.739074
H 0.983333 -0.412659 -2.715508
H 2.239250 0.571817 -3.484490

-C 0
6-31g(d,p)
****
-Mg 0
6-31g(d,p)
****
-N 0
6-31+g(d,p)
****
-H 0
6-31g(d,p)
****
-O 0
6-31+g(d,p)
****


