%chk=speciationDFT148.chk
%nprocshared=32
%mem=64GB
#p opt=loose wb97xd/gen scf=xqc freq

speciation study

0 1
Mg 0.318065 -1.133712 0.114099
C 0.997240 1.142426 1.678959
C 1.075770 -3.267323 1.739569
O 1.394121 -2.010423 1.306035
C 1.925927 0.258092 2.044582
C 1.321807 -3.335980 3.263077
H 1.038567 1.727207 0.761031
H 0.158013 1.409063 2.314396
H 0.017310 -3.516663 1.508745
H 1.730710 -3.986464 1.208146
H 0.675383 -2.620851 3.779790
H 1.133412 -4.332739 3.655410
H 2.355800 -3.054301 3.480822
H 2.790559 -0.003414 1.442573
H 3.256025 2.135199 0.506395
H 1.896580 -0.298470 2.973310
H -2.949680 3.401946 2.066336
C -0.962739 4.201561 1.672083
C -1.911104 3.082195 2.033551
C -0.944465 4.564782 0.173141
H -1.216941 5.109026 2.253358
H 0.068798 3.935057 1.978050
H -0.259534 5.416932 0.015279
H -0.492231 3.737773 -0.423299
C -2.331373 4.908268 -0.371417
H -1.664240 2.598799 2.968918
H -3.003910 4.034376 -0.347257
H -2.806867 5.697129 0.215334
H -2.275278 5.238784 -1.412759
C -4.841699 1.955167 -1.436357
C -5.839394 0.984016 -1.628002
C -5.219671 -0.277945 -1.436579
C -3.872262 -0.009543 -1.141318
N -3.635338 1.350308 -1.165953
C -2.757925 -0.977270 -0.875013
N -2.002202 -0.734283 0.361739
C -2.589005 -1.253030 1.585506
H -6.856897 1.151845 -1.873543
H -4.924008 3.016594 -1.499332
H -5.688362 -1.225069 -1.504876
H -2.022439 -0.891862 -1.715991
H -3.171476 -2.010208 -0.914874
C -2.722400 -2.804078 1.569246
C -1.644146 -0.872278 2.756911
C -3.986890 -0.656446 1.887208
H -1.755806 -3.266206 1.338410
H -3.052096 -3.181316 2.536560
H -3.449794 -3.125801 0.821305
H -1.599518 0.214076 2.898201
H -1.988693 -1.310553 3.693386
H -0.619714 -1.239301 2.585084
H -3.954080 0.438799 1.950310
H -4.690788 -0.888444 1.076114
H -4.398890 -1.038111 2.818514
Mg -1.931866 1.624748 0.517626
C 1.565487 -3.346133 -2.005721
C -0.759569 -3.596855 -1.521337
O 0.520529 -3.229422 -1.036466
C 2.853095 -3.203747 -1.209820
C -0.892257 -5.112700 -1.620003
H 1.499808 -4.326089 -2.505007
H 1.441424 -2.540005 -2.753006
H -1.425031 -3.188524 -0.721830
H -0.978723 -3.093061 -2.478066
H -0.495571 -5.592698 -0.716428
H -1.940660 -5.410526 -1.723591
H -0.342998 -5.520057 -2.472421
H 2.981953 -4.032192 -0.503614
H 3.726681 -3.154954 -1.862294
H 2.842574 -2.288671 -0.585767
C -0.047710 1.185533 -1.784443
C 0.548718 -0.104397 -1.966331
C 1.962384 0.129411 -1.901428
C 2.129559 1.497571 -1.663077
N 0.899590 2.137713 -1.592279
C 3.392078 2.283132 -1.548724
N 3.988078 2.286406 -0.190622
C 5.137398 1.383453 0.032884
H 0.069263 -0.947200 -2.432454
H -1.100506 1.432505 -1.889203
H 2.724209 -0.593980 -2.059576
H 4.129171 1.945479 -2.304571
H 3.181075 3.360113 -1.778386
C 6.344274 1.913002 -0.772490
C 5.470825 1.455084 1.543190
C 4.879269 -0.089027 -0.348073
H 6.494847 2.979543 -0.568788
H 7.258363 1.378005 -0.511866
H 6.184834 1.809087 -1.849474
H 4.670165 1.021531 2.151319
H 6.392406 0.916063 1.768444
H 5.598637 2.497030 1.857590
H 3.961553 -0.468066 0.125283
H 4.752383 -0.200635 -1.429108
H 5.704412 -0.731837 -0.037125

-C 0
6-31g(d,p)
****
-Mg 0
6-31g(d,p)
****
-N 0
6-31+g(d,p)
****
-H 0
6-31g(d,p)
****
-O 0
6-31+g(d,p)
****


