%chk=speciationDFT95.chk
%nprocshared=32
%mem=64GB
#p opt=loose wb97xd/gen scf=xqc freq

speciation study

0 1
Mg -0.834441 -0.831264 -0.325592
C -2.558413 -3.456184 0.362070
C -1.017654 -2.378955 1.979157
O -1.395618 -2.700128 0.587330
C -3.757566 -2.524597 0.179036
C -0.169853 -1.217076 1.759202
H -2.335497 -4.015247 -0.565721
H -2.714109 -4.170703 1.184214
H -1.933969 -2.202779 2.560410
H -0.515747 -3.294320 2.329221
H -0.402715 -0.272592 2.218200
H 0.891331 -1.370914 1.701587
H 2.465543 -0.304482 1.698376
H -3.634628 -1.914804 -0.728628
H -4.695204 -3.072328 0.100131
H -3.831844 -1.817001 1.015113
H 0.032675 -2.036858 -2.443495
C -0.505255 -0.106173 -3.294111
C -0.753058 -1.292526 -2.399671
C 0.728883 0.704518 -2.864303
H -0.369197 -0.443539 -4.340870
H -1.391041 0.555522 -3.314521
H 0.603124 1.072515 -1.815789
H 1.619484 0.052005 -2.859880
C 0.962177 1.903582 -3.787646
H -1.710482 -1.767573 -2.568551
H 1.142371 1.590722 -4.817480
H 0.096919 2.574254 -3.783065
H 1.825087 2.489207 -3.450533
C 0.021092 3.163733 1.296996
C 0.736694 3.205574 2.512906
C 1.898133 2.428093 2.312355
C 1.824402 1.949795 0.986606
N 0.675577 2.387960 0.368033
C 2.833590 1.134239 0.252771
N 3.204969 -0.080714 1.027628
C 3.579333 -1.259716 0.221659
H 0.463900 3.721599 3.396143
H -0.884722 3.669670 1.056981
H 2.672287 2.239901 3.011166
H 2.457658 0.891288 -0.765943
H 3.768923 1.725986 0.122117
C 4.736508 -0.881588 -0.729914
C 4.078312 -2.331490 1.224941
C 2.422967 -1.864439 -0.603523
H 5.518446 -0.346811 -0.179499
H 5.180226 -1.766932 -1.185226
H 4.390616 -0.222556 -1.532232
H 3.274770 -2.642697 1.899370
H 4.450084 -3.214801 0.706916
H 4.884876 -1.924268 1.843368
H 1.641627 -2.286684 0.044394
H 1.941947 -1.103135 -1.234158
H 2.770699 -2.663351 -1.257729
C -3.090389 1.099469 -1.105402
C -2.694684 0.960820 1.278990
O -2.765429 0.293234 0.023385
C -2.152473 2.271874 -1.292345
C -4.020336 1.609041 1.653466
H -3.002754 0.352579 -1.925526
H -4.143297 1.409377 -1.007452
H -2.445930 0.116270 1.957434
H -1.848638 1.685322 1.267051
H -4.854962 0.916247 1.510931
H -4.013062 1.920249 2.703719
H -4.216698 2.501090 1.049353
H -1.094973 1.995804 -1.052520
H -2.143654 2.633979 -2.322189
H -2.386088 3.112417 -0.632871

-C 0
6-31g(d,p)
****
-Mg 0
6-31g(d,p)
****
-N 0
6-31+g(d,p)
****
-H 0
6-31g(d,p)
****
-O 0
6-31+g(d,p)
****


