%chk=speciationDFT5.chk
%nprocshared=32
%mem=64GB
#p opt=loose wb97xd/gen scf=xqc freq

speciation study

0 1
Mg 1.982313 -0.477626 0.706933
H 4.027487 -1.518084 1.905205
C 4.842257 0.323962 1.076332
C 4.010582 -0.932134 0.992214
C 4.684557 1.206699 -0.176672
H 4.574443 0.907750 1.977708
H 5.911301 0.062183 1.201209
H 4.842433 0.595496 -1.083159
H 3.646476 1.596636 -0.241990
C 5.664529 2.382679 -0.155110
H 4.272544 -1.568119 0.154195
H 5.512502 3.005605 0.732849
H 6.701698 2.037426 -0.143562
H 5.534147 3.022557 -1.033131
C -1.344995 -2.822072 2.573942
C -2.441230 -2.554746 1.752639
C -1.953789 -2.541565 0.403940
C -0.543124 -2.819726 0.528748
N -0.183473 -2.979665 1.828576
C 0.438797 -2.773305 -0.605778
N 0.618729 -1.343162 -0.903727
C 0.906884 -0.952346 -2.266195
H -3.452051 -2.413054 2.048006
H -1.312476 -2.904120 3.638195
H -2.552977 -2.677844 -0.473668
H 1.408833 -3.241764 -0.319589
H 0.051741 -3.348903 -1.473049
C -0.353846 -1.093443 -3.165215
C 1.307382 0.543754 -2.224888
C 2.072548 -1.767025 -2.884402
H -1.130374 -0.372290 -2.861310
H -0.122299 -0.894592 -4.210452
H -0.778599 -2.096603 -3.092583
H 2.305972 0.686739 -1.796764
H 1.311718 0.984081 -3.222130
H 0.591532 1.135287 -1.620973
H 2.925935 -1.783251 -2.195843
H 1.777769 -2.801214 -3.069165
H 2.404024 -1.335551 -3.828047
Mg -1.384035 -0.353408 -0.132102
C 1.487444 2.138592 1.364779
C 0.839955 1.086675 2.071525
C -0.535434 1.136469 1.644524
C -0.606778 2.170734 0.679374
N 0.624460 2.768963 0.510240
C -1.786335 2.607141 -0.147353
N -2.510375 1.472949 -0.721995
C -3.891677 1.322456 -0.333860
H 1.183718 0.588619 2.960190
H 2.503395 2.471957 1.466627
H -1.344119 0.654161 2.168470
H -2.421640 3.283989 0.463474
H -1.419210 3.224569 -1.005871
C -4.742239 2.570164 -0.713455
C -4.440415 0.102964 -1.131829
C -4.108830 1.042146 1.186546
H -4.550422 2.835815 -1.757001
H -5.806877 2.383966 -0.589867
H -4.470809 3.430670 -0.099772
H -4.005175 -0.839471 -0.781102
H -5.522074 0.024587 -1.034935
H -4.188718 0.217716 -2.191783
H -3.657148 0.088275 1.481385
H -3.646871 1.829636 1.786480
H -5.167996 0.997525 1.433303

-H 0
6-31g(d,p)
****
-C 0
6-31g(d,p)
****
-Mg 0
6-31g(d,p)
****
-N 0
6-31+g(d,p)
****


