%chk=speciationDFT36.chk
%nprocshared=32
%mem=64GB
#p opt=loose wb97xd/gen scf=xqc freq

speciation study

0 1
Mg 0.192053 -0.410924 -0.337177
C -0.062912 -3.424265 0.183585
C 2.201717 -2.786853 0.522987
O 1.008029 -2.564565 -0.231542
C -1.168623 -3.189317 -0.832534
C 3.173919 -1.707114 0.074591
H 0.294835 -4.465640 0.178997
H -0.371875 -3.132991 1.206526
H 1.981806 -2.720724 1.604539
H 2.566567 -3.799379 0.281048
H 2.865693 -0.709112 0.444217
H 4.182806 -1.896371 0.445018
H 3.214604 -1.635733 -1.022690
H -0.770168 -2.938181 -1.825044
H -1.820797 -4.054956 -0.934078
H -1.817667 -2.327582 -0.518607
H 1.927521 -0.722857 -2.262237
C 1.465378 1.411918 -2.338416
C 1.089105 -0.043087 -2.223889
C 2.309306 1.895003 -1.143986
H 2.030458 1.585018 -3.275012
H 0.553984 2.036912 -2.419180
H 1.712381 1.844119 -0.202369
H 3.168704 1.220201 -0.995024
C 2.792108 3.333856 -1.350380
H 0.335256 -0.352048 -2.934948
H 3.410200 3.424346 -2.246067
H 1.941596 4.016322 -1.456844
H 3.381831 3.675362 -0.494489
C 1.071933 2.086683 2.392049
C 1.705834 0.850249 2.239479
C 0.670316 -0.108799 2.003613
C -0.549043 0.646903 2.032575
N -0.303933 1.965531 2.268816
C -1.916940 0.083831 1.751399
N -2.038694 -0.330310 0.351404
C -2.764046 0.572326 -0.508269
H 2.743032 0.645651 2.315156
H 1.511328 3.041235 2.577107
H 0.759818 -1.167442 2.105998
H -2.068137 -0.831921 2.369426
H -2.694755 0.809416 2.069786
C -2.122166 1.982940 -0.645557
C -2.805544 -0.080162 -1.924343
C -4.245969 0.769988 -0.046172
H -1.139700 1.919697 -1.126345
H -2.744998 2.661806 -1.219685
H -1.951218 2.413657 0.351532
H -3.283761 -1.059507 -1.868766
H -3.355060 0.544406 -2.625686
H -1.790532 -0.221741 -2.313666
H -4.691919 -0.202678 0.167154
H -4.282595 1.364316 0.868507
H -4.835952 1.272866 -0.807740

-C 0
6-31g(d,p)
****
-Mg 0
6-31g(d,p)
****
-N 0
6-31+g(d,p)
****
-H 0
6-31g(d,p)
****
-O 0
6-31+g(d,p)
****


