%chk=speciation73.chk
%nprocshared=16
%mem=32GB
#p opt PM7/gen scf=xqc 

 speciation study

0 1
C         -0.90744       -1.15929        1.02770
C         -2.31180       -1.19105        0.36724
C         -3.22397       -0.08994        0.94078
C         -2.56432        1.31182        0.95577
C         -1.13387        1.29357        1.56748
N         -0.29991        0.21584        0.81707
C         -0.95929       -1.74214        2.47704
C         -0.01426       -2.11833        0.35142
C         -1.26707        1.10003        3.11337
C         -0.53752        2.72736        1.56027
H          0.06932       -1.62131       -0.58180
H          0.93702       -2.18294        0.89913
H         -0.43531       -3.14260        0.26341
H         -1.15272       -2.83759        2.43899
H          0.00401       -1.59197        3.01033
H         -1.80974       -1.45854        3.09324
H         -0.15608        3.65412        1.08813
H         -1.38284        3.38373        1.86352
H         -0.00874        2.52916        0.69425
H         -0.29056        0.85149        3.57960
H         -1.64555        2.01744        3.61776
H         -2.06787        0.43804        3.43732
H         -2.49506        1.70339       -0.05089
H         -4.17079       -0.05115        0.35863
H         -2.79102       -2.18628        0.49268
H         -2.22283       -1.06230       -0.72260
H         -3.49487       -0.37165        1.97293
H         -3.23197        2.01908        1.49369
Li         1.21675        0.16793       -1.24526
C          2.49454       -2.53639       -2.87306
C          1.97994       -2.85280       -4.27002
C          0.56133       -3.30480       -4.02184
C          0.35201       -2.90297       -2.55907
O          1.39722       -1.96795       -2.17203
H          2.77920       -3.49874       -2.36920
H          3.39675       -1.90012       -2.88912
H          1.93236       -1.87408       -4.79193
H          2.57828       -3.55815       -4.88995
H         -0.69992       -2.58407       -2.38296
H          0.46240       -3.81940       -1.93264
H         -0.10303       -2.77721       -4.74231
H          0.38023       -4.39683       -4.13948
C          3.83390        2.10657       -0.23169
C          2.55938        2.55720        0.42318
C          2.45739        1.77191        1.80916
C          3.24744        0.40900        1.97375
C          3.99287       -0.13130        0.68993
N          3.48870        0.65040       -0.43788
C          4.93882        2.71956        0.75996
C          4.39458        2.56733       -1.59304
C          5.56551       -0.11130        0.85582
C          3.67570       -1.58476        0.36594
H          5.41804        2.14340       -1.71540
H          3.85272        2.12130       -2.44502
H          4.49324        3.67514       -1.66939
H          6.00221        2.59190        0.48369
H          4.83675        3.83464        0.74397
H          4.85665        2.47171        1.83492
H          3.89592       -2.26288        1.21504
H          2.65107       -1.66628        0.02471
H          4.27333       -1.90634       -0.51868
H          5.89183        0.02517        1.91065
H          6.07331        0.58418        0.18033
H          6.05641       -1.05160        0.52980
H          2.57620       -0.35851        2.41871
H          2.71196        2.44758        2.65423
H          2.44084        3.65665        0.56379
H          1.77695        2.23648       -0.27976
H          1.43366        1.52205        2.04085
H          3.97899        0.56918        2.79330
Li         1.61642        0.32860        0.26023
C          0.42797        3.14992       -3.01347
C         -0.24362        3.86015       -4.22015
C         -1.66755        3.39159       -4.43281
C         -1.58323        1.90779       -4.71016
C         -0.91583        1.11757       -3.54589
N          0.42104        1.62425       -3.06582
C          1.85580        3.66185       -3.03960
C         -0.21424        3.64453       -1.72227
C         -1.87201        1.03145       -2.37245
C         -0.70983       -0.26920       -4.07639
H         -1.27216        3.93709       -1.75972
H         -0.21785        2.74344       -1.15638
H          0.34571        4.45887       -1.21013
H          1.90589        4.77169       -3.08527
H          2.27289        3.41591       -2.08294
H          2.42664        3.25024       -3.90204
H         -0.05651       -0.28114       -4.97270
H         -0.19657       -0.74828       -3.27726
H         -1.66959       -0.78641       -4.30540
H         -2.78023        0.43372       -2.59919
H         -1.30021        0.58674       -1.54328
H         -2.23335        2.02299       -2.08293
H         -2.60627        1.51339       -4.90623
H         -2.32467        3.61672       -3.57107
H         -0.24766        4.96243       -4.05797
H          0.33131        3.65847       -5.15141
H         -2.11179        3.91966       -5.30081
H         -0.99140        1.78145       -5.64302
Li         1.62740        1.22256       -4.55251

-H 0
6-31g(d,p)
****
-Li 0
6-31g(d,p)
****
-C 0
6-31g(d,p)
****
-N 0
6-31+g(d,p)
****
-O 0
6-31+g(d,p)
****


