%chk=speciation4.chk
%nprocshared=16
%mem=32GB
#p opt PM7/gen scf=xqc 

 speciation study

0 1
C          0.69261        1.31362       -0.18713
C          1.46367        0.03620        0.21918
C          0.78946       -1.23119       -0.32226
C         -0.66159       -1.29129        0.16856
C         -1.45690       -0.02374       -0.23801
N         -0.74200        1.19900        0.24700
C          1.26664        2.54170        0.51803
C          0.95164        1.60032       -1.69165
C         -1.75796       -0.02803       -1.76201
C         -2.83816       -0.04680        0.42529
H          0.74386        0.79747       -2.39899
H          0.44655        2.52313       -2.00314
H          2.03850        1.77251       -1.85415
H          2.35976        2.64885        0.33924
H          0.75619        3.46815        0.17223
H          1.06801        2.45230        1.57983
H         -2.73139       -0.10967        1.51024
H         -3.41090        0.87172        0.16859
H         -3.42809       -0.93251        0.10208
H         -2.47317       -0.84489       -2.00592
H         -2.21416        0.93147       -2.07720
H         -0.92124       -0.27700       -2.41391
H         -1.16161       -2.21260       -0.20341
H          0.83608       -1.26305       -1.42824
H          2.52442        0.08214       -0.11129
H          1.46332       -0.03849        1.30713
H          1.33890       -2.12717        0.04947
H         -0.61549       -1.35627        1.27262
Li        -0.75479        1.22855        2.23674
C         -3.79024        4.07049       -1.99808
C         -3.22721        3.67066       -3.35633
C         -1.78200        4.08619       -3.24773
C         -1.74521        4.89660       -1.96805
O         -2.70865        4.31439       -1.12104
H         -4.31428        5.04913       -2.12032
H         -4.53846        3.35848       -1.60114
H         -3.26763        2.56751       -3.49895
H         -3.78697        4.17252       -4.17345
H         -0.72996        4.88038       -1.50982
H         -2.01759        5.95966       -2.15213
H         -1.23546        3.14985       -3.05109
H         -1.32526        4.55759       -4.14348
C          0.58528        1.19383        4.89811
C          0.46624        1.17890        6.44341
C         -0.46148        0.07500        6.93317
C         -1.83750        0.33377        6.33490
C         -1.82373        0.34567        4.78363
N         -0.76758        1.25810        4.22648
C          1.38965        2.45955        4.55013
C          1.43615       -0.01386        4.43487
C         -1.68056       -1.10630        4.24392
C         -3.19170        0.86803        4.32964
H          1.10431       -0.99511        4.78932
H          1.48015       -0.04587        3.34628
H          2.47873        0.07128        4.80988
H          2.36436        2.46686        5.08539
H          1.64593        2.49946        3.49449
H          0.82924        3.37801        4.82366
H         -3.37574        1.88350        4.73383
H         -3.26434        0.94257        3.23700
H         -4.00665        0.19605        4.68968
H         -2.54768       -1.72455        4.57069
H         -1.65779       -1.11267        3.14819
H         -0.80837       -1.65144        4.60774
H         -2.56643       -0.41581        6.71740
H         -0.08276       -0.93054        6.66610
H          1.47128        1.05828        6.90729
H          0.05346        2.15110        6.79416
H         -0.52394        0.11878        8.04146
H         -2.16788        1.33573        6.70477
Li        -1.73783        2.77651       -0.44572

-H 0
6-31g(d,p)
****
-Li 0
6-31g(d,p)
****
-C 0
6-31g(d,p)
****
-N 0
6-31+g(d,p)
****
-O 0
6-31+g(d,p)
****


