%chk=speciation15.chk
%nprocshared=16
%mem=32GB
#p opt PM7/gen scf=xqc 

 speciation study

0 1
C         -1.23597       -1.46548        0.12268
C         -2.68766       -1.43098       -0.45880
C         -3.44262       -0.19530       -0.02428
C         -2.68574        0.96115       -0.64349
C         -1.20712        1.05505       -0.14966
N         -0.40592       -0.23951       -0.18509
C         -1.29877       -1.75979        1.62850
C         -0.63889       -2.67912       -0.56781
C         -1.24997        1.63418        1.28187
C         -0.55100        2.01466       -1.13533
H         -0.44390       -2.49042       -1.64186
H          0.25196       -2.89217       -0.05343
H         -1.26005       -3.59343       -0.44717
H         -1.82754       -2.72514        1.83781
H         -0.27659       -1.86572        2.00488
H         -1.81346       -0.99897        2.23163
H         -0.84065        1.81232       -2.18551
H         -0.81053        3.07549       -0.91595
H          0.51554        1.80221       -1.17716
H         -0.29131        1.64387        1.77394
H         -1.65006        2.66679        1.28573
H         -1.91258        1.06795        1.95112
H         -2.72033        0.79865       -1.73723
H         -4.46474       -0.22942       -0.45726
H         -3.25757       -2.32595       -0.12608
H         -2.66034       -1.45088       -1.56943
H         -3.54575       -0.11792        1.07207
H         -3.22267        1.91813       -0.44199
Li         1.66728       -0.28104        0.82545
C          1.25005       -0.90686        3.91747
C          0.07680       -0.55265        4.83198
C         -0.04052        0.93875        4.68011
C          1.17051        1.26552        3.86499
O          1.39566        0.15997        2.97593
H          2.18556       -0.93364        4.52994
H          1.14592       -1.91208        3.51020
H         -0.87802       -0.99671        4.47538
H          0.27584       -0.87852        5.87478
H          1.01608        2.25628        3.45706
H          2.06755        1.37816        4.54365
H         -0.90874        1.14865        4.02513
H         -0.16352        1.52753        5.61634
C          2.98270       -3.02244        2.07107
C          4.10299       -3.92486        1.52004
C          3.93732       -3.83444        0.02926
C          2.50165       -3.39823       -0.08502
O          2.20625       -2.49726        0.99343
H          2.31839       -3.65265        2.70015
H          3.38441       -2.23800        2.73922
H          5.13481       -3.63000        1.81588
H          3.90472       -4.96705        1.85074
H          2.30416       -2.95537       -1.08616
H          1.86507       -4.30832        0.03388
H          4.57330       -3.02632       -0.35707
H          4.20676       -4.75234       -0.53093
C          3.49005        2.67297       -0.85382
C          2.33783        3.31464       -0.10627
C          2.15518        2.49141        1.17444
C          3.47504        1.75339        1.74661
C          4.21660        0.88422        0.65340
N          3.46049        1.17915       -0.53602
C          4.75067        3.57138       -0.41100
C          3.45917        2.83614       -2.38573
C          5.79123        0.96524        0.80764
C          4.11295       -0.60969        0.52522
H          4.39092        2.38321       -2.80518
H          2.59386        2.32167       -2.84331
H          3.44998        3.90545       -2.69032
H          4.44681        4.14445        0.48636
H          4.92958        4.45991       -1.04550
H          5.48418        3.44051        0.35863
H          4.50581       -1.14489        1.39337
H          3.19138       -0.92467        0.05156
H          4.74126       -0.93510       -0.34096
H          6.00864        0.60016        1.83818
H          6.35760        0.31503        0.10658
H          6.39973        1.85177        0.77932
H          4.12088        2.58912        2.05276
H          1.59878        3.16933        1.83146
H          2.48966        4.39698        0.10690
H          1.44830        3.46718       -0.71701
H          1.50558        1.66005        0.87021
H          3.41000        1.15342        2.65795
Li         1.56801        0.29063       -0.57972

-H 0
6-31g(d,p)
****
-Li 0
6-31g(d,p)
****
-C 0
6-31g(d,p)
****
-N 0
6-31+g(d,p)
****
-O 0
6-31+g(d,p)
****


