%chk=speciation85.chk
%nprocshared=16
%mem=32GB
#p opt PM7/gen scf=xqc 

 speciation study

0 1
C         -1.13011       -1.32708        0.83903
C         -2.50523       -1.51262        0.15224
C         -3.49148       -0.41635        0.57212
C         -2.91679        0.92959        0.19870
C         -1.45660        1.18131        0.74924
N         -0.50093        0.01650        0.53348
C         -1.34076       -1.55733        2.34842
C         -0.17303       -2.41308        0.34636
C         -1.54582        1.58885        2.25436
C         -0.95006        2.38185       -0.04449
H          0.02343       -2.31569       -0.73848
H          0.77482       -2.34002        0.87600
H         -0.58866       -3.42846        0.55669
H         -1.61794       -2.61717        2.54739
H         -0.46100       -1.28448        2.88174
H         -2.13052       -0.99718        2.84182
H         -1.66398        2.79505       -0.79007
H         -0.68207        3.24470        0.59564
H         -0.10026        2.01206       -0.61600
H         -0.58169        1.49854        2.78409
H         -1.89891        2.63815        2.36473
H         -2.27733        1.01571        2.83025
H         -2.93288        0.95942       -0.90120
H         -4.46740       -0.55182        0.05560
H         -2.94224       -2.50272        0.42190
H         -2.40970       -1.51626       -0.94943
H         -3.72785       -0.44247        1.64927
H         -3.58708        1.75455        0.52074
Li         1.20913        0.22084       -0.88473
C          1.98769       -2.50234        3.37322
C          1.02088       -2.92647        4.47460
C          0.79534       -1.64783        5.25811
C          1.57856       -0.62662        4.45745
O          1.71221       -1.12271        3.12908
H          3.03217       -2.60105        3.75229
H          1.90263       -3.16835        2.49493
H          0.05888       -3.18377        3.99286
H          1.31605       -3.81293        5.07579
H          1.11897        0.38022        4.52145
H          2.61048       -0.56087        4.89598
H          1.13403       -1.66745        6.31606
H         -0.28596       -1.39030        5.21758
C         -0.10620       -4.67281       -5.36090
C          0.61456       -3.96195       -6.45576
C         -0.41562       -2.93761       -6.88944
C         -1.47923       -3.04873       -5.78184
O         -0.84255       -3.66698       -4.68337
H         -0.79637       -5.44745       -5.78278
H          0.60275       -5.18392       -4.72809
H          1.43625       -3.48741       -5.89843
H          1.10493       -4.54955       -7.25542
H         -2.09837       -2.16234       -5.54113
H         -2.27263       -3.74887       -6.14206
H          0.10570       -1.97497       -6.94593
H         -0.87534       -3.12906       -7.87716
C          3.26714        2.79855       -0.00430
C          2.08768        3.34011        0.72837
C          1.81578        2.38833        1.93177
C          3.02668        1.43096        2.35801
C          3.70695        0.64664        1.15534
N          3.08272        1.24474       -0.02056
C          4.47342        3.51973        0.75356
C          3.43615        3.39489       -1.42318
C          5.26461        0.69083        1.30743
C          3.51134       -0.89229        0.94758
H          4.40728        3.04746       -1.86053
H          2.59780        3.17334       -2.09177
H          3.49252        4.50865       -1.39533
H          5.48275        3.27989        0.38242
H          4.40562        4.62310        0.60534
H          4.44460        3.54044        1.85279
H          3.83612       -1.47382        1.82936
H          2.53848       -1.24244        0.59281
H          4.14972       -1.24167        0.10550
H          5.55530        0.04374        2.16725
H          5.77995        0.29805        0.40356
H          5.73283        1.63287        1.59217
H          2.83040        0.79538        3.15850
H          1.33054        2.93594        2.76133
H          2.18919        4.40570        1.02510
H          1.29039        3.38624       -0.00668
H          1.05139        1.74882        1.52492
H          3.76046        2.02638        2.90719
Li         1.48017        0.03259        1.27351
C          1.81404       -4.82706       -1.97069
C          1.74811       -6.23022       -2.55261
C          0.26566       -6.55868       -2.49726
C         -0.36588       -5.23876       -2.04203
O          0.57602       -4.20299       -2.27735
H          1.90465       -4.88352       -0.86218
H          2.70014       -4.29252       -2.35020
H          2.05849       -6.16131       -3.61488
H          2.42710       -6.97297       -2.08621
H         -1.35948       -5.06356       -2.50415
H         -0.52711       -5.29906       -0.94039
H         -0.07352       -6.85075       -3.51771
H          0.00214       -7.39649       -1.81819
C          2.22560       -0.34170       -3.73156
C          2.05593       -0.57174       -5.24549
C          1.00332        0.34060       -5.88211
C         -0.30901        0.13750       -5.12596
C         -0.16618        0.42815       -3.62990
N          0.91426       -0.39874       -3.01087
C          3.10731       -1.44407       -3.16851
C          2.98232        0.96429       -3.51735
C         -0.04396        1.97467       -3.47610
C         -1.45042       -0.01351       -2.94001
H          2.51482        1.84124       -3.97299
H          3.09747        1.09781       -2.44030
H          3.99242        0.91459       -3.97229
H          4.10081       -1.48088       -3.65056
H          3.24511       -1.30784       -2.06465
H          2.60072       -2.41954       -3.33098
H         -1.62492       -1.10412       -3.08190
H         -1.28703        0.16482       -1.87376
H         -2.34367        0.53256       -3.30338
H         -1.03357        2.45819       -3.61951
H          0.38812        2.27138       -2.52718
H          0.56829        2.46289       -4.24211
H         -1.14434        0.70618       -5.58846
H          1.33414        1.39229       -5.89498
H          3.01827       -0.49863       -5.79091
H          1.69023       -1.58245       -5.35327
H          0.86677        0.06322       -6.94787
H         -0.53242       -0.90960       -5.17381
Li         0.18150       -2.52324       -3.30964

-H 0
6-31g(d,p)
****
-Li 0
6-31g(d,p)
****
-C 0
6-31g(d,p)
****
-N 0
6-31+g(d,p)
****
-O 0
6-31+g(d,p)
****


