%chk=speciation77.chk
%nprocshared=16
%mem=32GB
#p opt PM7/gen scf=xqc 

 speciation study

0 1
C         -1.34358       -0.91165        0.04159
C         -2.68959       -0.85600       -0.74833
C         -3.54751        0.31881       -0.33450
C         -2.72158        1.54069       -0.63358
C         -1.33725        1.59231        0.11187
N         -0.47870        0.32485        0.00228
C         -1.74089       -1.28152        1.50657
C         -0.54999       -1.97442       -0.68759
C         -1.55217        1.93472        1.58991
C         -0.65683        2.79355       -0.53599
H         -0.39821       -1.69073       -1.75170
H          0.43963       -2.00254       -0.23028
H         -1.06342       -2.96251       -0.67718
H         -2.22311       -2.28258        1.55225
H         -0.88708       -1.19499        2.18051
H         -2.51758       -0.68233        1.98176
H         -0.70555        3.18944       -1.57127
H         -1.25342        3.69669       -0.27549
H         -0.38482        2.25448       -1.47226
H         -0.59324        1.83978        2.07973
H         -1.94499        2.95907        1.74242
H         -2.25301        1.29337        2.12471
H         -2.55255        1.53195       -1.73528
H         -4.47885        0.32684       -0.94179
H         -3.26718       -1.79920       -0.59692
H         -2.50468       -0.77227       -1.84273
H         -3.87047        0.29206        0.72253
H         -3.32453        2.44791       -0.40651
Li         1.71697       -0.04598        1.02422
C          1.22759       -0.00347        4.66930
C         -0.17675        0.35307        5.05702
C         -0.17744        1.81930        4.75938
C          1.08707        1.96926        3.91012
O          1.43390        0.65783        3.39255
H          1.95832        0.35760        5.44540
H          1.39926       -1.04617        4.82211
H         -0.81760       -0.16875        4.31169
H         -0.51697        0.09443        6.08028
H          0.88154        2.81897        3.28710
H          1.93773        2.33151        4.55496
H         -1.11667        2.06077        4.22246
H         -0.10186        2.48062        5.64813
C          6.10528       -3.29274        3.74132
C          5.54978       -4.38034        4.66242
C          4.55046       -3.62997        5.51798
C          4.81916       -2.18774        5.15301
O          5.23434       -2.18498        3.79962
H          7.08609       -2.94793        4.14569
H          6.29179       -3.64854        2.70846
H          5.00838       -5.16777        4.09878
H          6.37280       -4.86526        5.22838
H          3.94859       -1.52695        5.34838
H          5.65987       -1.79566        5.77448
H          3.53356       -3.86405        5.14197
H          4.57282       -3.86323        6.60532
C          3.49324        2.72834       -0.82090
C          2.23345        3.12443       -0.22650
C          2.17174        2.53973        1.21250
C          3.46293        1.73039        1.79821
C          4.36036        1.06129        0.72986
N          3.53599        1.26368       -0.44521
C          4.54455        3.76494       -0.27179
C          3.53195        2.88592       -2.36099
C          5.89150        1.49214        0.98306
C          4.53754       -0.42197        0.58489
H          4.52303        2.54973       -2.74064
H          2.75348        2.27962       -2.86618
H          3.40094        3.95172       -2.65904
H          4.67415        3.78342        0.81648
H          5.52456        3.69038       -0.78506
H          4.18828        4.80824       -0.40758
H          4.91798       -0.98753        1.43713
H          4.70431       -0.56833       -0.50548
H          5.47900       -0.62939        0.01675
H          6.07805        1.27349        2.06098
H          6.68674        0.91816        0.45932
H          6.26757        2.50869        0.87363
H          4.03214        2.52608        2.29870
H          1.94606        3.43660        1.79481
H          1.96081        4.20116       -0.32427
H          1.58185        2.56399       -0.88818
H          1.31935        1.85036        1.16799
H          3.40955        1.04205        2.64125
Li         1.54382        0.59093       -0.45714
C          3.01005       -3.42179       -0.16371
C          3.68990       -4.72594        0.37332
C          2.79013       -5.56801        1.22577
C          2.42524       -4.71480        2.40723
C          1.66389       -3.44652        1.96876
N          2.43794       -2.53928        0.99688
C          4.15655       -2.81618       -0.98252
C          1.99215       -3.75568       -1.29597
C          0.27165       -3.94768        1.55323
C          1.45928       -2.67021        3.21091
H          1.11326       -4.33226       -1.03634
H          2.47793       -4.38053       -2.07660
H          1.68029       -2.82988       -1.82066
H          4.53332       -3.51323       -1.76278
H          3.78540       -1.95600       -1.57640
H          5.06033       -2.66989       -0.35888
H          2.42374       -2.42298        3.67373
H          0.94490       -1.75253        2.90965
H          0.84196       -3.20752        3.97794
H         -0.22384       -4.51206        2.37092
H         -0.33809       -3.12151        1.42369
H          0.18229       -4.59438        0.68799
H          1.81585       -5.31914        3.12093
H          1.91107       -5.91512        0.64749
H          4.06822       -5.35594       -0.45831
H          4.57428       -4.44873        0.99983
H          3.33718       -6.46638        1.57949
H          3.34596       -4.42517        2.93353
Li         3.87859       -2.30289        2.42364

-H 0
6-31g(d,p)
****
-Li 0
6-31g(d,p)
****
-C 0
6-31g(d,p)
****
-N 0
6-31+g(d,p)
****
-O 0
6-31+g(d,p)
****


