%chk=speciation35.chk
%nprocshared=16
%mem=32GB
#p opt PM7/gen scf=xqc 

 speciation study

0 1
C         -2.05458        0.51726       -0.77439
C         -2.93361        1.79546       -0.96189
C         -2.41148        2.74946       -2.03431
C         -1.02655        3.21290       -1.64067
C         -0.08695        2.02980       -1.23612
N         -0.65169        0.89799       -0.36863
C         -2.64493       -0.39074        0.30552
C         -2.12691       -0.36145       -2.04603
C          0.46215        1.49790       -2.52092
C          1.08700        2.61344       -0.52105
H         -1.95358        0.16301       -2.97888
H         -1.44223       -1.22927       -1.95817
H         -3.15852       -0.75453       -2.18151
H         -3.71838       -0.59981        0.09767
H         -2.19876       -1.39376        0.27626
H         -2.50010        0.05377        1.31019
H          0.77337        3.20019        0.30852
H          1.62246        1.75632       -0.13488
H          1.68371        3.30102       -1.16542
H          1.12519        2.21821       -3.05185
H          1.05278        0.62110       -2.24123
H         -0.33679        1.33326       -3.25641
H         -0.58286        3.83558       -2.45073
H         -2.40065        2.26344       -3.02265
H         -3.97102        1.51119       -1.24282
H         -2.95937        2.37904       -0.02398
H         -3.07704        3.63876       -2.11861
H         -1.13281        3.95980       -0.87123
Li        -0.44805        1.26135        2.14715
C          3.81479        1.00754       -0.79088
C          5.05713        0.93608       -1.66181
C          5.49142       -0.48280       -1.54834
C          4.32479       -1.10347       -0.79067
O          3.12678       -0.27759       -0.91797
H          4.13582        1.20490        0.26896
H          3.34555        1.91835       -1.17373
H          5.85220        1.72398       -1.46018
H          4.68889        1.09899       -2.70391
H          4.17554       -2.17906       -0.93217
H          4.76695       -1.05243        0.24364
H          5.60862       -0.90807       -2.56168
H          6.46201       -0.58635       -0.96395
C         -1.46229       -4.09336        1.04556
C         -2.58194       -3.62286        2.04854
C         -1.85516       -2.95020        3.15934
C         -0.45147       -3.20447        2.67777
O         -0.34273       -3.22421        1.18854
H         -1.82683       -4.21291        0.02242
H         -1.14348       -5.12610        1.39554
H         -3.20482       -2.83381        1.59762
H         -3.24796       -4.42777        2.43272
H          0.04968       -2.47657        3.31984
H         -0.14757       -4.19100        3.16028
H         -2.03786       -1.84138        3.14743
H         -2.05763       -3.30996        4.21164
C         -1.08641        4.29950        2.86377
C         -1.69537        5.58679        3.54071
C         -1.78923        5.57637        5.04953
C         -2.38191        4.21901        5.48376
C         -1.55993        3.02654        4.91354
N         -1.58432        3.01026        3.40500
C         -1.62021        4.35367        1.46111
C          0.46586        4.26611        2.80033
C         -0.14516        3.17045        5.60462
C         -2.27227        1.74302        5.34373
H          1.06004        4.10238        3.68877
H          0.76291        3.36393        2.26398
H          0.88015        5.19023        2.36042
H         -1.25133        5.25293        0.91901
H         -1.32203        3.39360        1.02277
H         -2.73294        4.37294        1.43819
H         -3.31098        1.78743        4.97378
H         -1.84147        0.84399        4.86677
H         -2.28920        1.63793        6.44858
H         -0.22986        3.03336        6.70266
H          0.67157        2.57658        5.19794
H          0.31307        4.16014        5.54534
H         -2.43294        4.19010        6.58786
H         -0.80825        5.80889        5.49895
H         -1.19731        6.51418        3.17592
H         -2.74948        5.68356        3.23271
H         -2.44108        6.40736        5.39597
H         -3.40867        4.14886        5.09564
Li         0.71570       -1.09439       -0.78385
C          0.56319       -0.88938       -4.16960
C          1.03310       -1.72444       -5.34367
C          2.23651       -2.40776       -4.74503
C          2.26184       -1.89023       -3.29932
O          0.89895       -1.61015       -2.96568
H          1.17896        0.05389       -4.30127
H         -0.49394       -0.62982       -4.30740
H          0.24953       -2.47099       -5.57054
H          1.24242       -1.08951       -6.25128
H          2.75913       -2.62010       -2.64095
H          2.87418       -0.94331       -3.29123
H          1.98732       -3.48930       -4.72029
H          3.18603       -2.26589       -5.31129
C         -6.29938        1.92948        3.30170
C         -5.86664        0.57048        3.78762
C         -5.02339        0.05884        2.65100
C         -5.18217        1.15754        1.62303
O         -5.36176        2.34769        2.33697
H         -7.29231        1.86790        2.78666
H         -6.40696        2.60834        4.13585
H         -5.20064        0.72205        4.66040
H         -6.73293       -0.05497        4.07796
H         -4.35311        1.24849        0.97416
H         -6.06914        0.96899        0.96653
H         -3.96894        0.07753        3.00117
H         -5.26729       -0.95737        2.27745
C          1.68509       -0.40007        4.70194
C          2.25658       -1.82683        5.06025
C          3.17832       -2.41764        3.98904
C          2.38230       -2.49275        2.74470
C          1.70210       -1.05435        2.41378
N          0.96598       -0.29552        3.41591
C          0.67397       -0.10972        5.77777
C          2.83431        0.64309        4.74813
C          2.80455       -0.24684        1.84716
C          0.77030       -1.05938        1.28860
H          3.71578        0.39758        4.15371
H          2.49952        1.64167        4.41901
H          3.27949        0.67610        5.75557
H          1.15847        0.07153        6.75579
H          0.12435        0.73550        5.47241
H         -0.09584       -0.90477        5.84150
H         -0.35119       -1.18503        1.19480
H          0.54764       -0.05482        1.10051
H          1.23555       -1.84811        0.61333
H          3.04173       -0.94237        1.08917
H          2.43242        0.70985        1.49166
H          3.73532       -0.19927        2.31482
H          3.01160       -2.90110        1.89334
H          4.06608       -1.78861        3.82536
H          2.81249       -1.78657        6.00903
H          1.41650       -2.54798        5.19693
H          3.53540       -3.42627        4.28383
H          1.80892       -3.43657        2.88192
Li        -3.73559        3.23327        3.02164
C         -5.75090        5.07905        4.36762
C         -7.17912        5.21295        3.83876
C         -6.97178        5.46724        2.35550
C         -5.46304        5.59358        2.22740
O         -4.92497        4.79657        3.25542
H         -5.41794        6.05749        4.78395
H         -5.66854        4.34569        5.19737
H         -7.75840        4.26986        3.92792
H         -7.74148        5.98967        4.39511
H         -5.11587        5.29615        1.21532
H         -5.14967        6.65070        2.40370
H         -7.25588        4.53287        1.81914
H         -7.55820        6.31177        1.93506

-H 0
6-31g(d,p)
****
-Li 0
6-31g(d,p)
****
-C 0
6-31g(d,p)
****
-N 0
6-31+g(d,p)
****
-O 0
6-31+g(d,p)
****


