%chk=speciation96.chk
%nprocshared=16
%mem=32GB
#p opt PM7/gen scf=xqc 

 speciation study

0 1
C         -2.07969       -1.42451       -0.33597
C         -3.15585       -0.35656       -0.72078
C         -3.56711        0.50012        0.49847
C         -2.30567        1.02322        1.19483
C         -1.34824       -0.12676        1.66890
N         -0.90838       -0.86539        0.45011
C         -2.90498       -2.50865        0.42963
C         -1.50639       -2.06260       -1.62674
C         -1.99819       -0.92065        2.83661
C         -0.02270        0.29753        2.26023
H         -1.04390       -1.30115       -2.27223
H         -0.72717       -2.76779       -1.35584
H         -2.29850       -2.58036       -2.20928
H         -3.44068       -3.18091       -0.27045
H         -2.31909       -3.04781        1.18161
H         -3.76523       -2.11384        0.99967
H          0.61506       -0.55609        2.53073
H         -0.09904        0.99908        3.12255
H          0.57244        0.61619        1.42580
H         -1.37730       -1.78587        3.15055
H         -2.10482       -0.24218        3.71426
H         -3.02520       -1.25691        2.68623
H         -1.85789        1.61517        0.39104
H         -4.19198        1.35395        0.14308
H         -4.05619       -0.81661       -1.18583
H         -2.84466        0.34357       -1.49476
H         -4.19448       -0.05337        1.21849
H         -2.57367        1.68875        2.03947
Li         1.09674       -1.61125        0.87070
C          1.23328       -4.43182       -0.65824
C          0.02976       -5.35159       -0.91987
C         -0.80305       -5.16292        0.32083
C          0.11504       -4.40472        1.26653
O          0.89913       -3.58510        0.43643
H          2.08437       -5.07967       -0.34252
H          1.53324       -3.88586       -1.57531
H         -0.56886       -5.02214       -1.80493
H          0.33534       -6.40436       -1.08400
H         -0.43323       -3.80779        2.02098
H          0.77557       -5.11607        1.81342
H         -1.57079       -4.48302       -0.02759
H         -1.36257       -6.02941        0.72762
C          3.86807       -1.77223        1.72737
C          4.10663       -2.07465        0.22958
C          4.03233       -0.74943       -0.57128
C          4.47624        0.52150        0.24404
C          3.77282        0.69076        1.67101
N          2.94886       -0.57571        1.83115
C          5.31295       -1.68164        2.36814
C          3.27393       -2.93555        2.53779
C          4.90902        1.16952        2.70525
C          2.83290        1.91377        1.96845
H          3.19123       -2.62573        3.60725
H          2.26079       -3.18273        2.22140
H          3.90674       -3.85110        2.50295
H          5.26104       -1.52335        3.46582
H          5.87600       -2.63242        2.25694
H          5.99120       -0.96721        1.87096
H          3.26999        2.89724        1.69619
H          2.62996        1.84275        3.05194
H          1.77855        2.00906        1.94616
H          5.60203        1.85324        2.16101
H          4.59123        1.82829        3.54941
H          5.53248        0.49905        3.28068
H          4.26291        1.41667       -0.31729
H          4.55855       -0.85511       -1.54600
H          5.07822       -2.60022        0.07682
H          3.33605       -2.75928       -0.18295
H          2.96495       -0.64392       -0.82627
H          5.58059        0.47443        0.32808
Li         0.32064        0.72914       -0.40930
C          2.24282        2.69197       -2.48068
C          2.14303        1.40684       -3.28903
C          0.84864        0.65217       -2.84535
C         -0.31200        1.56119       -2.21455
C          0.18602        2.68889       -1.13088
N          1.61267        2.40873       -1.12504
C          1.57941        3.82233       -3.34923
C          3.65587        3.28590       -2.27321
C         -0.59455        3.97325       -1.61050
C          0.05694        3.08858        0.41028
H          3.57283        4.15620       -1.57914
H          4.40244        2.59663       -1.89284
H          4.09974        3.65645       -3.21903
H          1.50893        4.78816       -2.80967
H          2.17439        4.03091       -4.26343
H          0.62917        3.52051       -3.81416
H         -0.13732        2.39637        1.16402
H          0.99574        3.61514        0.72543
H         -0.69516        3.83250        0.73144
H         -0.91284        4.07136       -2.65768
H         -1.62670        3.90367       -1.17286
H         -0.13763        4.91948       -1.25745
H         -1.01290        0.88200       -1.79528
H          0.51410       -0.01797       -3.66661
H          2.16804        1.63648       -4.38468
H          3.01472        0.73918       -3.09689
H          1.18326       -0.03428       -2.04308
H         -0.78796        1.99571       -3.11645
Li         2.35140        0.83327        0.18383

-H 0
6-31g(d,p)
****
-Li 0
6-31g(d,p)
****
-C 0
6-31g(d,p)
****
-N 0
6-31+g(d,p)
****
-O 0
6-31+g(d,p)
****


