%chk=speciation28.chk
%nprocshared=16
%mem=32GB
#p opt PM7/gen scf=xqc 

 speciation study

0 1
C          1.02727        0.55162       -1.03230
C          1.31399       -0.93875       -0.82057
C          0.17396       -1.84323       -1.32810
C         -1.23968       -1.37424       -0.88964
C         -1.41233        0.15473       -1.07478
N         -0.30543        0.98325       -0.48375
C          2.00103        1.30987       -0.22636
C          1.32919        0.94650       -2.51224
C         -1.64033        0.35422       -2.59837
C         -2.64393        0.57613       -0.33402
H          0.88930        0.31428       -3.28460
H          1.06732        2.00935       -2.70288
H          2.41915        0.82941       -2.70768
H          3.06264        1.02325       -0.39656
H          1.81183        2.30331       -0.57826
H          1.69277        1.22055        0.83133
H         -2.53487        0.38134        0.75460
H         -2.79761        1.66649       -0.42371
H         -3.49360       -0.01968       -0.73580
H         -2.65274       -0.00004       -2.88929
H         -1.47054        1.38110       -2.91806
H         -1.01541       -0.27788       -3.23499
H         -2.00023       -1.94384       -1.46925
H          0.23042       -1.83242       -2.42987
H          2.28027       -1.24511       -1.27601
H          1.53240       -1.03941        0.22352
H          0.34117       -2.89593       -1.01195
H         -1.54205       -1.66210        0.12098
Li        -0.36959        1.15953        1.92692
C          1.49044        5.62882       -0.80102
C          3.02328        5.45846       -0.90520
C          3.31331        4.30834        0.02819
C          1.99969        4.21604        0.77266
O          0.95554        4.46102       -0.18266
H          1.29809        6.47408       -0.09289
H          1.01607        5.93579       -1.75742
H          3.35943        5.16704       -1.92466
H          3.55636        6.38276       -0.58032
H          1.87054        3.28098        1.35172
H          2.01372        5.01263        1.54561
H          3.50547        3.43087       -0.61335
H          4.20870        4.39066        0.68310
C         -3.54724        2.98383       -2.66501
C         -3.68407        2.76709       -4.15880
C         -2.81390        3.85125       -4.72564
C         -1.98622        4.33436       -3.49846
O         -2.19327        3.43886       -2.42495
H         -4.26237        3.77720       -2.35439
H         -3.83880        2.03098       -2.19398
H         -3.20864        1.78982       -4.40785
H         -4.71890        2.72516       -4.56685
H         -0.93088        4.43578       -3.76748
H         -2.40198        5.31803       -3.18501
H         -2.19215        3.40617       -5.53521
H         -3.40805        4.69185       -5.13882
C         -1.75292        4.18819        2.85754
C         -2.74275        4.98523        3.77562
C         -2.43963        4.79205        5.25991
C         -2.54523        3.30345        5.54742
C         -1.56779        2.47314        4.67543
N         -1.67974        2.70126        3.20406
C         -2.26296        4.34051        1.40519
C         -0.40757        4.90607        2.89287
C         -0.13142        2.71696        5.13301
C         -1.92564        1.02748        4.89803
H          0.04038        5.13764        3.86735
H          0.25278        4.23684        2.37781
H         -0.45974        5.90229        2.39879
H         -2.37164        5.41984        1.14922
H         -1.57483        3.87131        0.68690
H         -3.26190        3.88797        1.28293
H         -2.95880        0.81987        4.53931
H         -1.22105        0.47726        4.29794
H         -1.82927        0.71833        5.95958
H          0.09572        2.21107        6.09027
H          0.48891        2.39005        4.29859
H          0.13759        3.75848        5.32308
H         -2.34680        3.11383        6.62719
H         -1.44743        5.20550        5.53044
H         -2.71613        6.06884        3.54482
H         -3.78441        4.63251        3.60525
H         -3.18166        5.33859        5.87925
H         -3.59196        2.99484        5.33719
Li        -0.52224        3.06411       -1.06725
C         -6.05002        1.28871        1.96210
C         -5.88242        1.25262        0.47495
C         -5.88892        2.70815        0.05595
C         -6.00121        3.42305        1.38070
O         -5.51141        2.52774        2.34785
H         -7.12673        1.25791        2.24030
H         -5.54364        0.43671        2.47105
H         -4.85272        0.95636        0.43686
H         -6.44655        0.51407       -0.12991
H         -5.50345        4.41451        1.39213
H         -7.07701        3.60662        1.61089
H         -4.89451        2.94254       -0.36779
H         -6.69096        3.00855       -0.64841
C          2.16924       -0.33388        3.72450
C          2.55096       -1.45360        4.72872
C          2.14397       -2.82661        4.26154
C          0.62602       -2.82281        4.22896
C          0.09016       -1.79741        3.22718
N          0.68581       -0.38701        3.30498
C          2.49632        0.96988        4.46478
C          3.16733       -0.36477        2.54502
C          0.31614       -2.34106        1.86063
C         -1.47054       -1.77308        3.38663
H          3.05020       -1.21522        1.85466
H          3.19192        0.58059        1.99388
H          4.21240       -0.41914        2.92602
H          3.55134        0.98369        4.81618
H          2.40147        1.84899        3.79507
H          1.87410        1.05141        5.37451
H         -1.76936       -1.56539        4.43156
H         -1.94317       -1.04801        2.69253
H         -1.90842       -2.77274        3.16413
H         -0.25644       -3.26510        1.63673
H         -0.03776       -1.50004        1.30161
H          1.37071       -2.55530        1.63601
H          0.25833       -3.84260        3.97680
H          2.61605       -3.07546        3.28757
H          3.64442       -1.43946        4.91799
H          2.05632       -1.27134        5.71312
H          2.49231       -3.58757        4.99036
H          0.25534       -2.58604        5.25281
Li        -3.61995        2.61339        2.77050

-H 0
6-31g(d,p)
****
-Li 0
6-31g(d,p)
****
-C 0
6-31g(d,p)
****
-N 0
6-31+g(d,p)
****
-O 0
6-31+g(d,p)
****


