%chk=speciation78.chk
%nprocshared=16
%mem=32GB
#p opt PM7/gen scf=xqc 

 speciation study

0 1
C         -1.21352       -1.48608        0.51086
C         -2.62550       -1.49603       -0.14310
C         -3.45464       -0.28692        0.25667
C         -2.72250        0.93438       -0.23151
C         -1.23091        1.02391        0.26972
N         -0.38146       -0.23912        0.19970
C         -1.40706       -1.71690        2.03281
C         -0.49494       -2.71489       -0.00677
C         -1.29947        1.56521        1.71295
C         -0.60230        2.04890       -0.65289
H         -0.17404       -2.59268       -1.05717
H          0.34333       -2.87113        0.64662
H         -1.10966       -3.63540        0.09627
H         -1.90750       -2.69292        2.22203
H         -0.43596       -1.74999        2.52049
H         -2.02491       -0.98753        2.56606
H         -0.96618        1.93202       -1.67274
H         -0.88618        3.08869       -0.39537
H          0.46352        1.82512       -0.74895
H         -0.34688        1.49862        2.21597
H         -1.63558        2.62229        1.73568
H         -2.02413        1.03859        2.34530
H         -2.80876        0.88847       -1.32960
H         -4.45254       -0.33291       -0.23514
H         -3.17721       -2.41347        0.16002
H         -2.54815       -1.54577       -1.23915
H         -3.63501       -0.24063        1.34429
H         -3.28694        1.85794        0.02869
Li         1.29293        0.01416       -1.27973
C          1.25355       -0.79038        4.23339
C          0.05863       -0.44120        5.13323
C          0.00055        1.06600        5.02782
C          1.23190        1.38301        4.22642
O          1.42820        0.28720        3.30990
H          2.16972       -0.83759        4.87565
H          1.17992       -1.79234        3.79827
H         -0.89747       -0.82337        4.71934
H          0.19442       -0.80128        6.16538
H          1.05869        2.37321        3.83456
H          2.12878        1.47024        4.89323
H         -0.87597        1.33184        4.39913
H         -0.10134        1.63640        5.97751
C          3.43728       -2.55466        2.43678
C          4.56925       -3.44133        1.84806
C          4.09854       -3.75773        0.45488
C          2.62105       -3.43489        0.55201
O          2.43398       -2.32111        1.44691
H          2.97829       -3.10689        3.27995
H          3.84810       -1.60541        2.84322
H          5.56790       -2.93638        1.79330
H          4.67831       -4.35507        2.46088
H          2.22629       -3.26319       -0.47074
H          2.10305       -4.31940        0.98688
H          4.55838       -3.05721       -0.26762
H          4.36775       -4.77438        0.08936
C          3.26020        2.80175       -0.64788
C          2.18091        3.41934        0.20687
C          2.11362        2.51848        1.47434
C          3.41975        1.61526        1.82199
C          3.99962        0.83122        0.55004
N          3.10312        1.27733       -0.47384
C          4.54675        3.63740       -0.07439
C          3.21414        3.13414       -2.14506
C          5.59451        0.96247        0.51711
C          3.87698       -0.60261        0.11861
H          4.09911        2.65919       -2.63283
H          2.29975        2.75067       -2.61440
H          3.27679        4.22380       -2.33999
H          5.48657        3.26939        0.28873
H          4.77211        4.52679       -0.69484
H          4.34305        4.11580        0.90110
H          4.45757       -1.20564        0.79079
H          2.86366       -0.94510       -0.16655
H          4.39854       -0.73321       -0.86824
H          5.95394        1.16229        1.56391
H          6.15534       -0.00851        0.35904
H          6.04981        1.50454       -0.28609
H          4.14200        2.37699        2.14566
H          1.74079        3.20346        2.22664
H          2.37421        4.48746        0.45346
H          1.23543        3.60888       -0.30382
H          1.37591        1.75588        1.22169
H          3.44032        0.95471        2.69769
Li         1.65515       -0.18499        1.14067
C          2.10170       -0.90348       -4.18576
C          1.79508       -1.38415       -5.63803
C          0.79957       -0.49890       -6.36551
C         -0.48773       -0.50614       -5.54880
C         -0.24214        0.02365       -4.10331
N          0.87696       -0.66022       -3.37550
C          2.89189       -2.03519       -3.50841
C          2.98969        0.34767       -4.18249
C         -0.05909        1.55711       -4.14807
C         -1.50771       -0.31676       -3.33478
H          2.54625        1.20558       -4.70704
H          3.17850        0.62452       -3.12916
H          3.95906        0.14578       -4.67842
H          3.84108       -2.23170       -4.05577
H          3.12982       -1.77554       -2.46340
H          2.29790       -2.97506       -3.50175
H         -1.74297       -1.40278       -3.40078
H         -1.29279       -0.11000       -2.29010
H         -2.39893        0.24236       -3.70561
H         -1.02792        2.06913       -4.33989
H          0.37872        1.91617       -3.21402
H          0.60182        1.90783       -4.95168
H         -1.28390        0.08998       -6.06198
H          1.18928        0.52443       -6.51559
H          2.73101       -1.45501       -6.23493
H          1.34881       -2.40420       -5.60673
H          0.58299       -0.91452       -7.37647
H         -0.84845       -1.56232       -5.51973
Li         0.14389       -2.46841       -3.19370

-H 0
6-31g(d,p)
****
-Li 0
6-31g(d,p)
****
-C 0
6-31g(d,p)
****
-N 0
6-31+g(d,p)
****
-O 0
6-31+g(d,p)
****


