%chk=speciation64.chk
%nprocshared=16
%mem=32GB
#p opt PM7/gen scf=xqc 

 speciation study

0 1
C 0.76674 1.01481 -1.06708
C 1.75137 -0.16796 -0.95546
C 1.15747 -1.49284 -1.60086
C -0.30098 -1.77714 -1.23775
C -1.19814 -0.49888 -1.16668
N -0.64812 0.78858 -0.50110
C 1.19082 2.20509 -0.31508
C 0.89727 1.36410 -2.51354
C -1.65827 -0.26116 -2.60607
C -2.40009 -0.91874 -0.40313
H 0.95990 0.55623 -3.25061
H 0.04157 1.95043 -2.69123
H 1.83983 1.91886 -2.74592
H 2.22937 2.54378 -0.54487
H 0.45044 2.87708 -0.68037
H 0.92757 2.18188 0.75547
H -2.17485 -1.00604 0.66892
H -3.01479 -0.10920 -0.60500
H -2.90398 -1.82724 -0.78858
H -2.32387 -1.07445 -2.96227
H -2.20830 0.67264 -2.61260
H -0.85393 -0.27315 -3.34188
H -0.70703 -2.54058 -1.94528
H 1.20720 -1.42381 -2.69600
H 2.73913 0.02764 -1.43497
H 2.01048 -0.17294 0.05127
H 1.81149 -2.37708 -1.35927
H -0.44109 -2.40851 -0.35341
Li -0.78837 1.16144 2.09510
C -0.13870 3.34802 4.66609
C -0.90184 4.56156 5.09751
C -1.21918 5.19329 3.77339
C -0.31681 4.43736 2.80030
O -0.34511 3.10135 3.24482
H 0.91184 3.68685 4.85300
H -0.31576 2.56132 5.41574
H -1.63079 4.60325 5.93488
H -1.87254 4.03106 5.19275
H -0.67120 4.54253 1.78932
H 0.73818 4.85125 2.87698
H -2.24720 4.88819 3.48586
H -1.14997 6.30210 3.80393
C -3.75286 -0.15730 3.61496
C -4.27452 0.94644 4.51828
C -2.98861 1.41144 5.14413
C -1.94420 0.57172 4.41181
O -2.46026 0.28250 3.14286
H -3.65590 -1.09915 4.21114
H -4.48943 -0.53573 2.90906
H -4.66917 1.80415 3.92716
H -5.08297 0.63988 5.21202
H -0.97182 1.00686 4.35647
H -1.76613 -0.37529 4.92719
H -2.84930 2.45785 4.83260
H -2.94035 1.31710 6.24979
C 2.18384 0.49637 3.26393
C 3.13704 -0.51809 4.03478
C 3.21807 -1.88656 3.46467
C 1.78906 -2.35697 3.57454
C 0.74211 -1.50140 2.75179
N 0.68350 0.05275 2.91827
C 2.17769 1.62567 4.28250
C 3.09510 0.91465 2.08737
C 1.06277 -1.87000 1.38818
C -0.60064 -2.15238 3.07957
H 3.45533 0.07534 1.47146
H 2.68623 1.69958 1.50086
H 4.02991 1.39182 2.45463
H 2.30775 2.60955 3.79612
H 1.32157 1.41693 4.92295
H 2.98479 1.61170 5.05670
H -0.77971 -2.03215 4.14100
H -1.42560 -1.74416 2.49378
H -0.57446 -3.25197 2.89316
H 0.88052 -2.94951 1.17412
H 0.41432 -1.14757 0.90925
H 2.12235 -1.77858 1.13448
H 1.77729 -3.42839 3.27581
H 3.67106 -1.90598 2.45697
H 4.18585 -0.13018 4.10626
H 2.83572 -0.63879 5.09352
H 3.89573 -2.52258 4.08253
H 1.53338 -2.33415 4.62889
Li -1.82263 2.79578 -1.23261
C -1.38722 5.97791 -0.49457
C -0.57216 7.10651 -1.06747
C 0.82423 6.58388 -1.05929
C 0.66008 5.16394 -0.57431
O -0.71967 4.75227 -0.74163
H -1.48545 6.14511 0.60694
H -2.34348 6.03327 -1.02749
H -0.72994 8.08004 -0.55225
H -0.87206 7.20097 -2.13184
H 1.41806 4.60632 -1.15184
H 0.94797 5.12911 0.50181
H 1.17023 6.56265 -2.11701
H 1.55734 7.15133 -0.44420
C -2.82190 2.40269 -4.29691
C -2.03509 1.61388 -5.35086
C -0.66538 2.26669 -5.31330
C -0.85435 3.39325 -4.27864
O -1.87216 2.93242 -3.38005
H -3.33030 3.25712 -4.79759
H -3.61824 1.79136 -3.83355
H -1.92081 0.55788 -5.03903
H -2.50842 1.55600 -6.35268
H 0.10720 3.69382 -3.80176
H -1.21081 4.31005 -4.79516
H 0.03640 1.49398 -4.94983
H -0.24689 2.58614 -6.28783
C -4.98550 1.62082 -0.14538
C -6.42600 1.85666 0.40739
C -7.17590 2.87352 -0.40680
C -6.37324 4.13653 -0.23451
C -4.84455 4.06078 -0.62174
N -4.09816 2.80206 -0.38955
C -4.31574 0.91680 0.97666
C -5.18832 0.76682 -1.44686
C -4.62238 4.33887 -2.09961
C -4.20595 5.10438 0.29276
H -5.75426 1.31915 -2.21557
H -4.31006 0.42962 -2.00149
H -5.77918 -0.15225 -1.20863
H -4.67220 -0.13589 0.97131
H -3.21624 1.03928 0.98321
H -4.51710 1.48238 1.89013
H -4.56701 5.06010 1.34231
H -3.17475 4.80400 0.47274
H -4.38284 6.13456 -0.08348
H -5.05461 5.30248 -2.42409
H -3.52999 4.36436 -2.30491
H -5.05878 3.52066 -2.71631
H -6.86811 5.00298 -0.72023
H -7.30392 2.58186 -1.46382
H -6.99978 0.89247 0.46286
H -6.42821 2.22560 1.46242
H -8.19192 3.00805 0.03869
H -6.48221 4.33570 0.86138
Li 0.36731 -0.37821 4.83514
C 0.97185 -1.79876 7.12744
C 0.32185 -3.17057 6.89128
C -1.15408 -2.83731 6.86291
C -1.16194 -1.35748 7.19663
O 0.05906 -0.79834 6.70385
H 1.12056 -1.65874 8.22387
H 1.99324 -1.70982 6.71956
H 0.57152 -3.63330 5.91554
H 0.63411 -3.89329 7.67305
H -2.09637 -0.84743 6.90223
H -1.16375 -1.25315 8.30683
H -1.53890 -2.96321 5.82861
H -1.78698 -3.47260 7.51695

-H 0
6-31g(d,p)
****
-Li 0
6-31g(d,p)
****
-C 0
6-31g(d,p)
****
-N 0
6-31+g(d,p)
****
-O 0
6-31+g(d,p)
****


