%chk=speciation37.chk
%nprocshared=16
%mem=32GB
#p opt PM7/gen scf=xqc 

 speciation study

0 1
C         -1.33206        1.59712       -0.94183
C         -0.89329        3.11024       -1.02257
C          0.22411        3.31628       -2.05696
C          1.39396        2.47549       -1.62719
C          1.05371        1.01412       -1.48510
N         -0.16275        0.72366       -0.48492
C         -2.42760        1.36909        0.06537
C         -2.06322        1.24813       -2.30047
C          0.75507        0.59061       -2.88322
C          2.44315        0.34232       -1.24208
H         -1.55042        1.44274       -3.24927
H         -2.42838        0.20180       -2.32009
H         -2.94613        1.92233       -2.44021
H         -3.36809        1.91354       -0.21192
H         -2.65483        0.31635        0.02892
H         -2.09500        1.59380        1.08834
H          2.97601        0.72006       -0.35268
H          2.36969       -0.76108       -1.35149
H          3.19985        0.60875       -2.00583
H          1.64637        0.24328       -3.45113
H         -0.05375       -0.07896       -2.66087
H          0.43303        1.30079       -3.64805
H          2.22738        2.63550       -2.36294
H         -0.15791        3.12527       -3.07128
H         -1.74587        3.75724       -1.32558
H         -0.52111        3.44028       -0.03336
H          0.64373        4.31450       -2.22419
H          1.73650        2.72803       -0.65559
Li        -0.19644        1.34546        2.04659
C          0.37610       -4.26036        0.66129
C          0.04513       -5.07531        1.92297
C         -0.42019       -4.07539        2.93219
C         -0.20996       -2.74578        2.25179
O          0.11414       -2.87953        0.86245
H          1.44534       -4.39133        0.39107
H         -0.26715       -4.66652       -0.12322
H          0.88987       -5.71177        2.26149
H         -0.81072       -5.76263        1.74182
H         -0.98268       -1.98391        2.47447
H          0.64202       -2.36327        2.75676
H         -1.48778       -4.21210        3.13311
H          0.02803       -4.17717        3.94326
C         -2.97142       -3.43755        1.06672
C         -4.29493       -3.98893        0.62567
C         -5.11197       -2.72541        0.50658
C         -4.06630       -1.61735        0.69273
O         -2.81083       -2.20625        0.33858
H         -2.21227       -4.19762        0.88395
H         -3.05784       -3.25994        2.17635
H         -4.10077       -4.38976       -0.39158
H         -4.73947       -4.80135        1.25120
H         -4.39749       -0.73748        0.12875
H         -4.04341       -1.32428        1.78372
H         -5.51591       -2.70424       -0.52606
H         -5.93768       -2.63687        1.24815
C         -1.43980        3.17022        4.55608
C         -2.14609        4.30930        5.40567
C         -3.62467        4.52539        5.16519
C         -3.77976        4.70447        3.67540
C         -3.16052        3.53507        2.84105
N         -1.64519        3.30684        3.09109
C          0.04647        3.33382        4.86826
C         -1.79595        1.74325        5.03659
C         -4.14749        2.32617        3.10897
C         -3.42342        4.00099        1.42153
H         -2.76537        1.28773        4.86598
H         -1.16292        1.06592        4.43801
H         -1.64544        1.64115        6.12938
H          0.23154        3.57423        5.93770
H          0.41066        4.18359        4.30361
H          0.62454        2.44034        4.58482
H         -3.27870        5.06298        1.35313
H         -2.68703        3.65168        0.72350
H         -4.47493        3.85970        1.07017
H         -5.19315        2.56660        2.80038
H         -3.86694        1.36712        2.63091
H         -4.38363        2.14366        4.17771
H         -4.88178        4.86303        3.45419
H         -4.23683        3.70467        5.57189
H         -1.99857        4.16005        6.49956
H         -1.63835        5.24651        5.15233
H         -3.97768        5.44625        5.68995
H         -3.29372        5.65164        3.38741
Li        -0.84744       -1.65725       -0.55374
C          0.25429       -1.93325       -3.88398
C          0.24232       -2.94456       -4.97557
C          0.08370       -4.19069       -4.17559
C          0.15700       -3.73020       -2.71501
O         -0.41910       -2.44312       -2.68932
H          1.34728       -1.78799       -3.65009
H         -0.19253       -1.04932       -4.39621
H         -0.65399       -2.78677       -5.62284
H          1.16046       -2.84527       -5.61031
H         -0.40255       -4.45493       -2.13134
H          1.22731       -3.66582       -2.37671
H         -0.96509       -4.50565       -4.34688
H          0.77689       -5.00167       -4.47408
C         -1.77922        7.71137        4.44306
C         -2.16830        8.94922        3.67212
C         -0.88707        9.30475        2.95848
C          0.00739        8.10193        3.21932
O         -0.80322        7.02516        3.66351
H         -1.29855        7.99310        5.40642
H         -2.68021        7.14609        4.70728
H         -2.89317        8.61576        2.89867
H         -2.61560        9.76280        4.27440
H          0.55006        7.88341        2.29832
H          0.73073        8.33394        4.04440
H         -1.12447        9.40063        1.88055
H         -0.39774       10.24543        3.30200
C          1.63816       -0.77662        4.82073
C          2.39533       -2.17762        4.82449
C          3.62232       -2.25062        3.93036
C          3.10983       -1.96428        2.55137
C          2.41097       -0.55002        2.46393
N          1.35304       -0.15663        3.45734
C          0.33085       -1.07648        5.57368
C          2.47224        0.19900        5.65884
C          3.56646        0.47081        2.38011
C          1.60670       -0.46657        1.25010
H          3.45212        0.39922        5.20126
H          1.94118        1.15479        5.78595
H          2.66968       -0.22515        6.66585
H          0.54293       -1.51761        6.57278
H         -0.23170       -0.17197        5.77875
H         -0.30177       -1.79951        5.01350
H          0.54192       -0.69666        1.34506
H          1.48729        0.61430        1.06814
H          1.99232       -1.19715        0.53965
H          4.20149        0.24242        1.49561
H          3.18387        1.48481        2.24533
H          4.24054        0.45142        3.24577
H          3.95676       -2.01679        1.83546
H          4.39931       -1.54413        4.25306
H          2.69278       -2.46662        5.85656
H          1.73313       -2.99772        4.50045
H          4.05365       -3.27968        3.95853
H          2.50710       -2.83504        2.22321
Li        -0.55596        5.35682        2.50032
C          2.59526        5.91800        2.48679
C          3.44776        5.50526        1.28046
C          2.83121        4.19809        0.91544
C          2.00846        3.82492        2.12045
O          1.46481        5.04462        2.55000
H          3.20594        5.72271        3.39613
H          2.40218        6.99287        2.47324
H          3.35633        6.17942        0.39033
H          4.52123        5.41786        1.54892
H          1.22680        3.07503        1.87362
H          2.64501        3.41908        2.94052
H          2.07094        4.47797        0.17105
H          3.51653        3.43340        0.47844
C          0.10389        6.35210       -0.18152
C         -0.13307        7.70589       -0.78170
C         -1.62991        7.82514       -0.76069
C         -2.07759        6.61737        0.03963
O         -0.94953        6.05432        0.68659
H          0.04110        5.65072       -0.98115
H          1.08638        6.33595        0.29188
H          0.28432        8.44335       -0.06755
H          0.34359        7.83755       -1.78023
H         -2.87079        6.94984        0.73394
H         -2.46963        5.84408       -0.66689
H         -1.88008        8.75334       -0.21118
H         -2.11691        7.83434       -1.76006

-H 0
6-31g(d,p)
****
-Li 0
6-31g(d,p)
****
-C 0
6-31g(d,p)
****
-N 0
6-31+g(d,p)
****
-O 0
6-31+g(d,p)
****


