%chk=speciation12.chk
%nprocshared=16
%mem=32GB
#p opt PM7/gen scf=xqc 

 speciation study

0 1
C          0.95117        0.75834       -0.42799
C          1.59057       -0.59136        0.02920
C          0.99830       -1.76098       -0.75059
C         -0.50048       -1.77667       -0.50903
C         -1.23824       -0.43664       -0.75165
N         -0.53862        0.79200       -0.16147
C          1.59473        1.89581        0.33894
C          1.42384        1.02308       -1.89812
C         -1.46051       -0.40079       -2.27568
C         -2.67130       -0.53375       -0.19387
H          1.27086        0.24429       -2.64626
H          1.01902        1.98495       -2.26987
H          2.54007        1.12511       -1.93515
H          2.69277        1.85942        0.34801
H          1.27326        2.77442       -0.18652
H          1.12583        2.02199        1.32506
H         -2.68708       -0.43569        0.89618
H         -3.28728        0.26872       -0.60766
H         -3.15996       -1.47850       -0.50774
H         -2.06557       -1.27064       -2.61197
H         -2.06688        0.47267       -2.48038
H         -0.56376       -0.49390       -2.89417
H         -0.95412       -2.63731       -1.07673
H          1.22904       -1.70776       -1.83357
H          2.68882       -0.58750       -0.12143
H          1.40779       -0.75422        1.11629
H          1.45438       -2.72391       -0.40029
H         -0.62376       -2.02395        0.49885
Li        -0.67208        1.12624        2.25560
C         -0.63360        3.72268        4.41593
C         -1.25880        3.50554        5.80547
C         -2.72049        3.54936        5.49366
C         -2.72856        3.26772        3.98367
O         -1.41234        2.89080        3.53936
H         -0.73484        4.80478        4.14155
H          0.45697        3.53888        4.37740
H         -1.09222        2.46859        6.13943
H         -0.93667        4.15127        6.65054
H         -3.54211        2.57160        3.72680
H         -2.95130        4.27084        3.54638
H         -3.27133        2.79060        6.10066
H         -3.15320        4.55265        5.71415
C         -4.62129        3.18863       -0.90644
C         -5.14257        4.16186        0.14827
C         -4.50172        3.62398        1.40605
C         -3.86879        2.31778        0.97353
O         -3.47751        2.53733       -0.36890
H         -5.38591        2.41515       -1.09372
H         -4.45885        3.70982       -1.85255
H         -6.25739        4.20176        0.14605
H         -4.77181        5.20538        0.01456
H         -3.03770        2.00903        1.63389
H         -4.63616        1.50897        1.01944
H         -3.68300        4.31469        1.61795
H         -5.17965        3.60475        2.28781
C         -0.60679       -1.71424        3.99658
C          0.24736       -2.79891        4.70457
C          1.09798       -2.23712        5.81622
C          2.06033       -1.26332        5.17019
C          1.33097       -0.10601        4.44830
N          0.22358       -0.53523        3.51023
C         -1.19723       -2.44484        2.80884
C         -1.81842       -1.29954        4.87089
C          0.75298        0.82268        5.48963
C          2.42746        0.67919        3.68218
H         -1.56157       -0.88409        5.85134
H         -2.48703       -0.59166        4.33529
H         -2.42041       -2.20692        5.11011
H         -1.83637       -3.30250        3.10317
H         -1.82532       -1.75772        2.23135
H         -0.35630       -2.88713        2.24016
H          2.03902        1.01399        2.74342
H          3.30924        0.06289        3.41278
H          2.79980        1.57212        4.23227
H          1.53271        1.28123        6.13649
H          0.26856        1.55585        4.88859
H          0.01386        0.37676        6.16166
H          2.77008       -0.86129        5.92681
H          0.47761       -1.76924        6.60560
H         -0.40095       -3.61395        5.08689
H          0.95128       -3.26403        3.97132
H          1.67736       -3.06293        6.28025
H          2.66453       -1.83266        4.42632
Li        -1.52913        2.58190       -1.00110
C         -1.78834        5.33332       -0.31902
C         -1.24243        6.52433       -1.08583
C          0.24744        6.38162       -0.91913
C          0.37631        5.13670       -0.07071
O         -0.78557        4.34475       -0.32586
H         -1.99484        5.61620        0.74058
H         -2.71364        4.99817       -0.79666
H         -1.46561        6.37841       -2.16662
H         -1.66973        7.49217       -0.74724
H          1.36821        4.72476       -0.30219
H          0.37971        5.39711        1.01589
H          0.67354        6.15271       -1.92352
H          0.78086        7.25558       -0.48706
C         -1.00164        1.89812       -4.19160
C         -0.98671        2.83359       -5.38686
C         -1.89091        3.94905       -4.92085
C         -2.51954        3.38976       -3.66777
O         -1.48501        2.64918       -3.06955
H         -1.73812        1.09771       -4.45326
H         -0.01907        1.41813       -4.08281
H          0.02637        3.25390       -5.57148
H         -1.34247        2.28873       -6.29066
H         -2.83927        4.23952       -3.04736
H         -3.38398        2.71458       -3.90105
H         -1.22511        4.76136       -4.55410
H         -2.58000        4.36689       -5.68389

-H 0
6-31g(d,p)
****
-Li 0
6-31g(d,p)
****
-C 0
6-31g(d,p)
****
-N 0
6-31+g(d,p)
****
-O 0
6-31+g(d,p)
****


