%chk=speciation61.chk
%nprocshared=16
%mem=32GB
#p opt PM7/gen scf=xqc 

 speciation study

0 1
C         -0.08471        0.27365       -0.80020
C          0.54929       -1.05987       -0.25751
C         -0.32012       -1.84799        0.69027
C         -0.70457       -0.89384        1.79896
C         -1.51734        0.32894        1.27571
N         -0.74200        1.19900        0.24700
C          1.05878        1.02358       -1.46441
C         -1.00962       -0.13693       -1.93215
C         -2.84650       -0.21335        0.76391
C         -1.93092        1.11752        2.52818
H         -1.75592       -0.87386       -1.67233
H         -1.41912        0.77462       -2.34941
H         -0.44468       -0.64279       -2.75603
H          1.58700        0.38176       -2.20997
H          0.70483        1.93594       -1.97187
H          1.75452        1.27485       -0.67927
H         -1.04460        1.46628        3.06291
H         -2.63408        1.93796        2.27279
H         -2.47832        0.47323        3.25392
H         -2.81876       -0.97315       -0.00935
H         -3.36313        0.65199        0.43672
H         -3.44676       -0.70106        1.56361
H         -1.29000       -1.46469        2.55746
H         -1.19334       -2.29900        0.18202
H          0.88032       -1.73073       -1.08328
H          1.44911       -0.84157        0.29398
H          0.25697       -2.69999        1.11628
H          0.22694       -0.55521        2.27940
Li        -1.74824        2.82923       -0.59771
C         -4.83987        1.48843       -1.19089
C         -5.04864        0.10554       -1.80254
C         -4.21932        0.19645       -3.06689
C         -3.65002        1.61837       -3.01443
O         -3.55224        1.97213       -1.63092
H         -5.64355        2.07695       -1.66428
H         -5.07621        1.57534       -0.10990
H         -4.64193       -0.70475       -1.16789
H         -6.12472       -0.12124       -1.97164
H         -2.73241        1.71781       -3.61118
H         -4.38011        2.30192       -3.50969
H         -3.40387       -0.54029       -2.97660
H         -4.75655       -0.04963       -4.00638
C         -0.52553        5.92043       -4.59809
C         -1.63400        5.35778       -5.43132
C         -1.48093        3.88104       -5.15452
C         -0.74706        3.88102       -3.80561
O         -0.65035        5.22912       -3.37712
H          0.47864        5.71314       -5.04519
H         -0.55078        7.00867       -4.50304
H         -2.57026        5.70968       -4.94558
H         -1.63846        5.64294       -6.50354
H         -1.15751        3.19530       -3.04585
H          0.29999        3.52260       -3.99305
H         -2.48220        3.40795       -5.14254
H         -0.83139        3.38987       -5.91614
C          0.75155        5.22162       -0.03066
C          1.11519        6.62684        0.53490
C          0.54538        6.89768        1.93230
C         -0.96375        6.64533        1.91454
C         -1.33705        5.25065        1.39614
N         -0.77068        4.89372        0.02534
C          1.26193        5.15063       -1.46283
C          1.70442        4.28868        0.68384
C         -0.93399        4.23436        2.41334
C         -2.82988        5.12641        1.39674
H          1.79578        4.47554        1.74982
H          1.55405        3.25724        0.34587
H          2.74921        4.56488        0.44514
H          2.36521        5.27168       -1.55005
H          1.01911        4.15545       -1.87562
H          0.86765        6.00744       -2.01811
H         -3.14869        5.81045        0.63421
H         -3.13171        4.07811        1.22123
H         -3.28069        5.44162        2.36725
H         -1.47740        4.33937        3.37889
H         -1.02615        3.25940        1.95065
H          0.07257        4.35757        2.62132
H         -1.34759        6.80608        2.94985
H          1.04242        6.26799        2.69497
H          2.21669        6.80082        0.55715
H          0.76276        7.35850       -0.15466
H          0.75891        7.94234        2.23767
H         -1.48790        7.36768        1.28240
Li         0.80216        1.80781        1.34473
C         -4.38932        6.87160       -1.17399
C         -5.39641        5.94410       -0.48813
C         -5.04685        4.60983       -1.05999
C         -4.18441        4.94224       -2.25992
O         -3.46535        6.09062       -1.91320
H         -4.95085        7.47760       -1.91637
H         -3.90341        7.56448       -0.46003
H         -5.33674        5.89731        0.62358
H         -6.42722        6.24358       -0.76310
H         -3.48364        4.14401       -2.54265
H         -4.82156        5.16892       -3.13906
H         -4.38291        4.07592       -0.37569
H         -5.95181        4.00294       -1.19398
C         -0.76607        9.08975       -0.70922
C         -1.90477       10.05492       -0.90024
C         -2.42676        9.66726       -2.25310
C         -1.47906        8.56784       -2.71317
O         -0.95798        7.95775       -1.56568
H          0.18531        9.56519       -1.04055
H         -0.59091        8.92150        0.35971
H         -2.68997        9.84187       -0.14252
H         -1.53880       11.09519       -0.80339
H         -2.06360        7.85806       -3.33036
H         -0.62161        8.98509       -3.29014
H         -3.41289        9.19995       -2.08628
H         -2.53936       10.48694       -2.98431
C          3.70952        1.78935        2.07562
C          4.87332        2.24796        3.00403
C          4.59765        2.00390        4.46886
C          3.35718        2.77904        4.81025
C          2.12058        2.32167        3.98135
N          2.34632        2.41662        2.44246
C          4.20824        2.20656        0.67123
C          3.66721        0.24580        2.05496
C          1.65619        0.91858        4.48858
C          1.01556        3.25472        4.52990
H          3.60934       -0.26742        3.01092
H          2.82540       -0.06730        1.46171
H          4.58984       -0.18992        1.61365
H          5.18502        1.71278        0.45466
H          3.56151        1.90269       -0.14580
H          4.40924        3.28772        0.60593
H          1.23321        4.31820        4.31808
H          0.02596        2.90789        4.21384
H          0.93663        3.19337        5.64092
H          1.35375        0.95089        5.56233
H          0.77015        0.57948        3.94614
H          2.39090        0.11543        4.50925
H          3.16950        2.67165        5.89675
H          4.48032        0.93188        4.70491
H          5.81574        1.71760        2.74608
H          5.05228        3.34071        2.87249
H          5.44342        2.39123        5.07566
H          3.55280        3.85869        4.61034
Li        -1.50758        6.03661       -1.66423

-H 0
6-31g(d,p)
****
-Li 0
6-31g(d,p)
****
-C 0
6-31g(d,p)
****
-N 0
6-31+g(d,p)
****
-O 0
6-31+g(d,p)
****


