%chk=speciation62.chk
%nprocshared=16
%mem=32GB
#p opt PM7/gen scf=xqc 

 speciation study

0 1
C          0.78936        1.14632       -0.05794
C          1.61182       -0.19784        0.24950
C          0.98550       -1.45074       -0.29443
C         -0.41156       -1.44444        0.22868
C         -1.22544       -0.19215       -0.26097
N         -0.74200        1.19900        0.24700
C          1.40438        2.14094        0.84437
C          1.19934        1.53389       -1.45930
C         -1.44949       -0.32663       -1.80497
C         -2.52795       -0.44294        0.28099
H          1.12269        0.66374       -2.11273
H          0.64826        2.43140       -1.72913
H          2.28557        1.73709       -1.53146
H          2.51744        2.23452        0.72452
H          0.89937        3.07078        0.66023
H          1.14489        1.79942        1.83757
H         -2.42811       -0.45693        1.37396
H         -3.06800        0.40096       -0.14317
H         -3.00204       -1.40210       -0.03499
H         -1.98032       -1.27658       -2.04347
H         -2.10332        0.47367       -2.18575
H         -0.55819       -0.43300       -2.41642
H         -0.89889       -2.39448       -0.09838
H          1.00410       -1.50612       -1.39730
H          2.65591       -0.13738       -0.12349
H          1.75776       -0.37136        1.30897
H          1.52165       -2.35026        0.08133
H         -0.35847       -1.48018        1.33112
Li        -0.75479        1.22855        2.23674
C          0.10229        5.32670       -1.01376
C          1.34986        5.51021       -0.16147
C          0.80649        5.50445        1.23646
C         -0.67149        5.11517        1.03743
O         -0.86686        4.60232       -0.25979
H         -0.32126        6.33197       -1.23381
H          0.36372        4.85681       -1.96569
H          1.99226        4.61257       -0.29297
H          2.00385        6.37813       -0.39364
H         -1.03871        4.41640        1.79238
H         -1.24795        6.06563        1.09898
H          1.42168        4.78049        1.81043
H          0.88896        6.47229        1.77281
C         -0.73965        2.09565       -3.84452
C          0.11351        3.25019       -4.36948
C         -0.94983        4.26453       -4.58408
C         -2.14196        3.74298       -3.71610
O         -1.70376        2.65321       -2.92858
H         -1.25833        1.62819       -4.72440
H         -0.13296        1.27796       -3.53483
H          0.78116        3.55317       -3.53824
H          0.79672        3.03369       -5.22089
H         -2.63693        4.55009       -3.14940
H         -2.89979        3.32604       -4.43380
H         -0.55440        5.26304       -4.30833
H         -1.23600        4.25475       -5.66025
C          0.72601        0.96787        4.69425
C          0.86248        0.68179        6.24712
C         -0.05018       -0.41662        6.74164
C         -1.45703       -0.06941        6.32884
C         -1.63007        0.08340        4.78829
N         -0.76758        1.25810        4.22648
C          1.85788        2.06881        4.44243
C          1.32120       -0.24799        3.95313
C         -1.44777       -1.33837        4.14496
C         -3.10817        0.34105        4.58884
H          1.26638       -1.19424        4.49904
H          0.79100       -0.32917        3.01124
H          2.42527       -0.23486        3.81771
H          2.84798        1.64385        4.72174
H          2.01830        2.44876        3.43785
H          1.93674        2.93572        5.07856
H         -3.42993        1.28994        5.01432
H         -3.32813        0.26361        3.52877
H         -3.73372       -0.45256        5.06892
H         -2.21739       -2.04460        4.52991
H         -1.56898       -1.31488        3.06557
H         -0.55616       -1.91962        4.36621
H         -2.14025       -0.84793        6.73860
H          0.24482       -1.41379        6.36591
H          1.91112        0.41839        6.52134
H          0.61732        1.54882        6.87276
H          0.01751       -0.47921        7.85687
H         -1.70297        0.89937        6.79290
Li        -1.92408        2.83410       -0.65186
C         -1.16096        6.00361        5.66181
C         -0.67223        5.86168        4.22739
C         -0.27846        4.43086        4.23774
C          0.10248        4.28651        5.68124
O         -1.01283        4.73768        6.31264
H         -0.49008        6.73657        6.17164
H         -2.16501        6.45344        5.73084
H         -1.44256        6.08695        3.46369
H          0.24343        6.47802        4.08159
H          0.18611        3.26964        5.98856
H          1.03522        4.83570        5.97059
H         -1.19517        3.84270        4.04762
H          0.45475        4.08783        3.51002
C         -4.04272        4.39355        6.34159
C         -3.90658        5.03187        7.72320
C         -3.49259        3.87139        8.59291
C         -3.69089        2.67802        7.69235
O         -3.43771        3.11969        6.37629
H         -5.11966        4.22688        6.11704
H         -3.68479        5.04163        5.53157
H         -3.09478        5.79055        7.77360
H         -4.86814        5.50498        8.01212
H         -3.05306        1.84688        8.03277
H         -4.74315        2.31363        7.72869
H         -2.39380        3.95319        8.75383
H         -3.99717        3.80358        9.57998
C         -4.52183        3.70875        1.69939
C         -6.01939        3.79559        2.23898
C         -6.73451        2.48307        2.34512
C         -6.72393        1.93910        0.91659
C         -5.28769        1.70185        0.39262
N         -4.27400        2.86680        0.45864
C         -4.19450        5.15706        1.37833
C         -3.63728        3.22372        2.83663
C         -4.88340        0.50917        1.29404
C         -5.41118        1.35419       -1.09317
H         -4.00803        2.27471        3.20179
H         -2.59281        3.10633        2.50775
H         -3.69030        3.90770        3.69594
H         -4.30807        5.79727        2.28503
H         -3.18935        5.23613        0.98469
H         -4.89067        5.53086        0.59822
H         -6.18259        0.57514       -1.27711
H         -5.73068        2.28213       -1.61749
H         -4.46560        1.04656       -1.57024
H         -5.02069       -0.48002        0.79848
H         -3.92520        0.81161        1.68653
H         -5.34644        0.31931        2.27347
H         -7.30354        0.98142        0.89709
H         -6.27048        1.86230        3.13923
H         -6.05323        4.29088        3.23748
H         -6.64345        4.40818        1.55651
H         -7.78409        2.60870        2.68919
H         -7.27878        2.64450        0.26125
Li        -1.67058        2.91637        5.59318

-H 0
6-31g(d,p)
****
-Li 0
6-31g(d,p)
****
-C 0
6-31g(d,p)
****
-N 0
6-31+g(d,p)
****
-O 0
6-31+g(d,p)
****


