%chk=speciation36.chk
%nprocshared=16
%mem=32GB
#p opt PM7/gen scf=xqc 

 speciation study

0 1
C 0.97462 1.38794 -1.01078
C 1.80389 0.15280 -0.64781
C 1.37012 -1.19920 -1.33785
C -0.11466 -1.46704 -1.01819
C -0.89109 -0.19560 -1.34393
N -0.48937 1.12337 -0.56864
C 1.53165 2.51799 -0.22258
C 1.33327 1.81180 -2.48183
C -0.70327 -0.15052 -2.81849
C -2.35222 -0.45968 -1.20628
H 1.71701 2.83793 -2.58446
H 0.48707 2.15792 -3.07952
H 2.31373 1.38667 -2.80801
H 2.64309 2.54187 -0.23084
H 1.22638 3.45803 -0.67127
H 1.07788 2.37089 0.74785
H -2.31549 -0.74431 -0.23092
H -2.91723 0.40972 -1.52628
H -2.79570 -1.33802 -1.71572
H -1.25132 -0.98220 -3.33164
H -0.98619 0.83919 -2.85713
H 0.24648 -0.13912 -3.34154
H -0.49131 -2.35587 -1.59980
H 1.59112 -1.21241 -2.40797
H 2.88948 0.26943 -0.80432
H 1.62834 0.23977 0.43072
H 1.99010 -2.08028 -1.12994
H -0.34701 -1.72861 -0.00111
Li -0.43856 1.13863 2.18168
C 0.36090 4.63196 3.59242
C 1.22024 5.72221 2.81579
C 2.32188 4.85796 2.18226
C 1.98250 3.43476 2.73602
O 0.56595 3.30867 2.94459
H 0.74967 4.64305 4.63962
H -0.68352 4.93763 3.81259
H 0.66868 6.22241 2.00126
H 1.48240 6.74218 3.19806
H 2.42973 2.59743 2.19169
H 2.49953 3.34916 3.70745
H 2.31940 4.92755 1.06621
H 3.36138 5.18798 2.34341
C -5.14766 2.77588 -1.89196
C -6.44807 3.21984 -0.89565
C -5.85293 3.11848 1.01394
C -4.39463 2.11007 0.42068
O -4.05741 2.22218 -1.04248
H -5.48208 2.11318 -2.71330
H -4.68929 3.66186 -2.57620
H -6.21991 4.25200 -1.52578
H -7.19841 4.16814 -1.15002
H -3.32150 2.10319 1.03363
H -4.54025 1.06132 0.46247
H -5.45174 5.46764 1.67744
H -6.32054 2.75984 2.06073
C -3.02426 1.21937 4.83819
C -4.16909 0.42961 5.59214
C -4.21337 -1.06286 5.34090
C -4.39426 -1.21636 3.87387
C -3.27398 -0.60208 3.03806
N -2.81840 0.83529 3.33769
C -3.46421 2.64691 4.80598
C -1.81031 1.32191 5.82129
C -2.07062 -1.39486 3.03656
C -3.78446 -0.85184 1.63469
H -1.80524 0.86274 6.83476
H -1.01531 2.00710 5.49364
H -2.17866 1.86722 6.70262
H -3.41173 3.21326 5.76783
H -2.87190 3.20394 4.04944
H -4.52327 2.59076 4.54253
H -4.82340 -0.73068 1.36931
H -3.18190 -0.08706 1.23765
H -3.59273 -1.87113 1.19651
H -2.28233 -2.46194 2.81760
H -1.54131 -0.99431 2.13854
H -1.13990 -0.86567 2.95845
H -4.58554 -2.27628 3.58814
H -3.34242 -1.63895 5.70520
H -4.17426 0.63344 6.68243
H -5.16060 0.78066 5.24394
H -5.14152 -1.46345 5.81148
H -5.30703 -0.68184 3.62463
Li -2.09295 2.77542 -1.48653
C -0.78504 5.12401 -0.83095
C -0.54855 4.54139 0.51781
C -1.55319 5.11781 1.44792
C -2.39446 5.68599 0.39837
O -2.13543 4.95767 -0.85570
H -0.49188 6.20958 -0.93013
H -0.30996 4.59980 -1.66822
H -0.77915 3.46309 0.46360
H 0.42103 4.65068 0.78516
H -3.31938 6.05141 0.82378
H -2.14060 6.76172 0.27028
H -1.88789 4.26964 2.09207
H -1.37723 5.99206 2.11061
C -2.39828 3.68086 -4.47397
C -3.51658 3.15036 -5.40549
C -3.63385 1.71870 -5.02530
C -2.30062 1.48734 -4.51931
O -1.99175 2.60707 -3.65662
H -1.52182 3.97237 -5.10523
H -2.71392 4.55814 -3.88464
H -4.49965 3.64169 -5.28772
H -3.15903 3.15973 -6.45581
H -2.50630 0.51050 -4.06899
H -1.48348 1.35916 -5.27592
H -4.23706 1.58679 -4.13565
H -4.00964 0.96546 -5.74760
C 1.37121 -2.27136 2.59406
C 2.41672 -3.06993 3.36854
C 2.11052 -3.09339 4.81857
C 2.20353 -1.64778 5.27805
C 1.11737 -0.76167 4.61378
N 1.08682 -0.80268 3.09711
C 2.00939 -2.31192 1.25392
C 0.10135 -3.15064 2.42540
C -0.20949 -1.21641 5.22185
C 1.35626 0.68135 5.06409
H -0.41960 -3.43558 3.33912
H -0.53715 -2.67649 1.71468
H 0.23423 -4.10634 1.88539
H 1.64779 -3.13649 0.59681
H 1.50458 -1.52467 0.95359
H 3.08562 -2.08158 1.08242
H 2.39428 1.01316 4.87165
H 0.68824 1.34125 4.48888
H 1.14434 0.78629 6.15441
H -0.22671 -1.21694 6.32439
H -0.92545 -0.51918 4.89727
H -0.57841 -2.19357 4.91949
H 2.08843 -1.62778 6.38197
H 1.11866 -3.55151 5.00351
H 2.46876 -4.10711 2.95866
H 3.42934 -2.61187 3.23934
H 2.87058 -3.71946 5.31783
H 3.21729 -1.25457 5.04329
Li -4.52677 1.92582 2.44032
C -5.05452 4.39807 3.17420
C -6.89592 4.91952 2.77593
C -7.06879 5.10115 0.85547
C -4.81151 4.80273 0.15165
O -4.17033 4.19714 1.73545
H -4.55301 5.47262 3.35093
H -4.73555 4.52203 4.22681
H -7.58881 4.28534 3.29372
H -7.01438 6.01153 3.14318
H -4.53496 4.12914 -0.37706
H -4.42151 5.23707 -0.77383
H -7.79471 4.21281 0.91907
H -7.95741 5.38267 0.25639
C -7.03173 0.47395 0.84786
C -8.41039 1.12054 0.96483
C -8.59035 1.29925 2.46607
C -7.41433 0.52476 3.04653
O -6.35885 0.64502 2.10898
H -7.09865 -0.60508 0.59037
H -6.52160 0.90805 -0.02114
H -8.40602 2.18143 0.72161
H -8.99855 1.23564 0.03267
H -7.12403 0.90583 4.04466
H -7.66014 -0.56107 3.15655
H -8.38170 2.35280 2.73794
H -9.59953 1.08294 2.86735

-H 0
6-31g(d,p)
****
-Li 0
6-31g(d,p)
****
-C 0
6-31g(d,p)
****
-N 0
6-31+g(d,p)
****
-O 0
6-31+g(d,p)
****


