%chk=speciation56.chk
%nprocshared=16
%mem=32GB
#p opt PM7/gen scf=xqc 

 speciation study

0 1
C 0.80575 0.91916 -0.73428
C 1.55956 -0.37413 -0.32349
C 1.05767 -1.65903 -0.96820
C -0.41408 -1.77360 -0.63576
C -1.19131 -0.48058 -0.97679
N -0.63625 0.80585 -0.28606
C 1.29616 2.16071 -0.08784
C 1.15020 1.11547 -2.25882
C -1.38888 -0.36946 -2.52535
C -2.55164 -0.72328 -0.49332
H 1.23204 0.22628 -2.89586
H 0.47807 1.82766 -2.71688
H 2.19651 1.47396 -2.38582
H 2.35697 2.40501 -0.33355
H 0.61574 2.86235 -0.52976
H 1.09915 2.22248 0.99201
H -2.48994 -0.84685 0.57880
H -3.05338 0.16397 -0.79211
H -3.05513 -1.61621 -0.92948
H -2.08682 -1.14982 -2.90671
H -1.82944 0.59839 -2.75155
H -0.53893 -0.56518 -3.17000
H -0.84167 -2.65966 -1.15497
H 1.23603 -1.69373 -2.05789
H 2.65535 -0.28247 -0.48619
H 1.26663 -0.54262 0.69552
H 1.58778 -2.53632 -0.53626
H -0.49292 -1.96227 0.46269
Li -0.38499 0.71102 2.42363
C -3.14868 0.13993 4.59594
C -3.17446 -1.13897 5.40770
C -3.22472 -2.16111 4.30873
C -2.96860 -1.35786 3.05157
O -2.33052 -0.13945 3.39219
H -4.18344 0.44068 4.30658
H -2.87517 0.93069 5.27691
H -2.06809 -1.23305 5.43421
H -2.48353 -1.19773 6.27533
H -2.46750 -1.96863 2.28274
H -3.98775 -1.13943 2.70415
H -2.44130 -2.93429 4.46374
H -4.22669 -2.66052 4.24024
C 2.17010 -1.02331 4.00613
C 3.54989 -0.38095 4.37122
C 3.76919 0.62835 3.26778
C 2.79553 0.14589 2.25896
O 1.58634 -0.31985 2.89162
H 2.38825 -2.05815 3.65538
H 1.50128 -1.11812 4.88733
H 3.60104 0.17043 5.33907
H 4.35558 -1.13697 4.39710
H 2.64559 0.97594 1.57645
H 3.26135 -0.70152 1.70659
H 3.43131 1.63905 3.53565
H 4.81167 0.76287 2.90841
C 0.31352 2.40736 5.25439
C 0.26285 3.64810 6.18157
C -0.98926 4.43263 5.99758
C -0.98730 4.88242 4.53665
C -1.04069 3.66762 3.54926
N -0.01806 2.61568 3.76735
C 1.73309 1.98350 5.38374
C -0.50707 1.24758 5.82989
C -2.44754 3.09212 3.56458
C -0.79802 4.22562 2.17434
H -1.31249 1.59205 6.50234
H -0.79336 0.64337 4.96306
H 0.07265 0.49778 6.41361
H 2.00438 1.65439 6.41014
H 1.74513 1.17032 4.71901
H 2.45023 2.77181 5.06490
H 0.21757 4.66286 2.17138
H -0.88526 3.43168 1.40593
H -1.53770 5.01663 1.99362
H -3.20013 3.84717 3.26434
H -2.49179 2.25040 2.85424
H -2.71778 2.79712 4.57383
H -1.84115 5.56332 4.36936
H -1.88367 3.84595 6.27755
H 0.39687 3.35186 7.24817
H 1.09930 4.34498 5.94933
H -0.95625 5.33174 6.66667
H -0.05980 5.47570 4.37021
Li -1.89022 2.79532 -1.09923
C -1.43732 6.03839 -0.70190
C -0.60228 7.13758 -1.30260
C 0.78022 6.59263 -1.27776
C 0.61280 5.18130 -0.74895
O -0.77537 4.77574 -0.76130
H -1.54953 6.32810 0.36475
H -2.39947 6.04364 -1.24115
H -0.73037 8.11082 -0.77099
H -0.90330 7.25803 -2.36274
H 1.31353 4.56978 -1.34787
H 0.96679 5.19786 0.29970
H 1.13570 6.55567 -2.32927
H 1.50807 7.18416 -0.67360
C -3.02700 2.39732 -4.18905
C -2.31268 1.63579 -5.29406
C -0.92749 2.25950 -5.30277
C -1.02782 3.30715 -4.19199
O -2.03354 2.87764 -3.26848
H -3.54535 3.28574 -4.63154
H -3.80751 1.76714 -3.74212
H -2.83316 1.60411 -6.28091
H -2.19367 0.57736 -4.98409
H -0.03983 3.55231 -3.73168
H -1.36372 4.26295 -4.63417
H -0.20786 1.45384 -5.03980
H -0.63220 2.70019 -6.25442
C -5.01289 1.68017 0.13547
C -6.40594 1.91009 0.81525
C -7.20992 2.96307 0.09040
C -6.38114 4.21821 0.17402
C -4.89154 4.11205 -0.38773
N -4.13470 2.87944 -0.08706
C -4.28247 0.88103 1.18071
C -5.29751 0.92333 -1.19870
C -4.81166 4.31371 -1.88967
C -4.18652 5.22342 0.39266
H -4.47469 1.00078 -1.91368
H -6.15338 1.31747 -1.76788
H -5.53579 -0.14393 -1.00891
H -4.66758 -0.14980 1.10651
H -3.19374 1.01693 1.09619
H -4.43029 1.27478 2.20487
H -4.40876 5.22265 1.47870
H -3.14870 4.94443 0.42182
H -4.41854 6.23341 -0.01589
H -5.25512 5.26744 -2.21145
H -3.73672 4.30972 -2.18996
H -5.31313 3.48171 -2.41929
H -6.91624 5.07857 -0.28014
H -7.46651 2.70188 -0.94834
H -6.96991 0.95165 0.87323
H -6.29456 2.26167 1.86959
H -8.16992 3.10638 0.63763
H -6.36706 4.42624 1.27025
Li 1.65543 3.36682 3.06354

-H 0
6-31g(d,p)
****
-Li 0
6-31g(d,p)
****
-C 0
6-31g(d,p)
****
-N 0
6-31+g(d,p)
****
-O 0
6-31+g(d,p)
****


