%chk=speciation5.chk
%nprocshared=16
%mem=32GB
#p opt PM7/gen scf=xqc 

 speciation study

0 1
C         -0.07533       -0.58156       -0.56656
C          0.98679       -1.57481        0.00751
C          0.83206       -1.80406        1.49776
C          0.99949       -0.45393        2.16285
C         -0.06506        0.58447        1.69597
N         -0.14244        0.73284        0.20137
C          0.44130       -0.28151       -1.99658
C         -1.42765       -1.31992       -0.67007
C         -1.43287        0.27033        2.32447
C          0.38124        1.91734        2.29419
H         -1.76315       -1.75479        0.27671
H         -2.22401       -0.67785       -1.05055
H         -1.32226       -2.19662       -1.35298
H          0.44898       -1.19956       -2.63272
H         -0.14001        0.48823       -2.49295
H          1.48844        0.09905       -1.98983
H          1.42199        2.10310        1.99279
H         -0.28522        2.73447        1.96762
H          0.38693        1.88907        3.40309
H         -1.35681        0.24814        3.43422
H         -2.14475        1.06864        2.06644
H         -1.84341       -0.70689        2.04327
H          0.97994       -0.57063        3.26786
H         -0.13969       -2.27022        1.75303
H          0.96201       -2.55417       -0.52913
H          2.02221       -1.17553       -0.14547
H          1.63385       -2.48875        1.85272
H          2.02255       -0.09166        1.90122
Li        -1.50812        2.51926       -0.41232
C         -2.07826        3.72664       -3.22244
C         -3.36573        3.45223       -3.99781
C         -3.58567        1.99587       -3.74826
C         -2.24924        1.52965       -3.23700
O         -1.71826        2.58308       -2.45770
H         -1.26585        3.87266       -3.96969
H         -2.12675        4.66874       -2.68364
H         -4.24496        4.01901       -3.61442
H         -3.20307        3.68419       -5.07190
H         -2.37691        0.59504       -2.68040
H         -1.55534        1.33602       -4.09016
H         -4.26075        1.94931       -2.89359
H         -4.03894        1.41156       -4.57757
C         -4.25284        1.15240        0.61443
C         -5.39643        1.18144       -0.37353
C         -5.71810        2.64808       -0.45570
C         -4.52109        3.29633        0.22867
O         -3.47975        2.32976        0.38910
H         -4.67444        1.19802        1.65086
H         -3.68063        0.21167        0.53579
H         -4.94550        0.84675       -1.31907
H         -6.27475        0.52662       -0.19097
H         -4.29221        4.18839       -0.32551
H         -4.82464        3.63047        1.24932
H         -5.82463        2.94490       -1.52401
H         -6.64334        2.94794        0.08877
C         -1.32014        5.68347        0.69095
C         -0.52073        6.95489        1.11860
C          0.55430        7.32432        0.11144
C          1.50355        6.15303        0.09007
C          0.82621        4.83553       -0.39742
N         -0.48816        4.49710        0.26788
C         -2.12525        5.26457        1.93652
C         -2.26119        6.11025       -0.43410
C          0.67429        4.86078       -1.92316
C          1.82187        3.74330       -0.06860
H         -1.74540        6.57010       -1.29104
H         -2.74061        5.23560       -0.81944
H         -3.02443        6.83497       -0.07528
H         -2.82561        6.06787        2.25720
H         -2.68758        4.33675        1.76745
H         -1.43373        5.06457        2.78586
H          2.06525        3.78357        1.00997
H          1.35009        2.80036       -0.34667
H          2.78064        3.86020       -0.61615
H          0.34665        3.86843       -2.27416
H          1.65626        5.05450       -2.40694
H         -0.02040        5.64291       -2.26921
H          2.39147        6.38850       -0.53794
H          0.15802        7.54921       -0.89818
H         -1.20934        7.81889        1.26603
H         -0.01646        6.79102        2.09775
H          1.09474        8.23036        0.46217
H          1.88507        6.03306        1.13158
Li         1.76336        1.02400       -0.18514

-H 0
6-31g(d,p)
****
-Li 0
6-31g(d,p)
****
-C 0
6-31g(d,p)
****
-N 0
6-31+g(d,p)
****
-O 0
6-31+g(d,p)
****


