%chk=speciation63.chk
%nprocshared=16
%mem=32GB
#p opt PM7/gen scf=xqc 

 speciation study

0 1
C          0.72437        1.25681       -0.21296
C          1.56990       -0.00992        0.13268
C          0.90274       -1.32344       -0.30580
C         -0.52454       -1.34094        0.22983
C         -1.36426       -0.09776       -0.22216
N         -0.74200        1.19900        0.24700
C          1.37024        2.42303        0.51307
C          0.95298        1.49843       -1.72890
C         -1.57986       -0.18966       -1.75939
C         -2.76415       -0.18970        0.37801
H          0.94386        0.60712       -2.36097
H          0.23199        2.17928       -2.13803
H          1.98703        1.87079       -1.91298
H          2.46073        2.50272        0.29080
H          0.87078        3.37614        0.29723
H          1.23843        2.22098        1.56694
H         -2.68655       -0.19531        1.45553
H         -3.38899        0.67326        0.07110
H         -3.27087       -1.13553        0.08076
H         -2.27812       -1.02076       -2.00853
H         -1.93677        0.77273       -2.15790
H         -0.71937       -0.47886       -2.36103
H         -1.01778       -2.28876       -0.07528
H          0.92066       -1.42463       -1.40864
H          2.59247        0.03541       -0.31501
H          1.76650       -0.07336        1.18730
H          1.47960       -2.18855        0.08436
H         -0.41783       -1.35297        1.31454
Li        -0.75479        1.22855        2.23674
C          0.29741        5.28783       -1.43123
C         -0.04149        6.49738       -2.30268
C         -0.52417        5.86813       -3.60032
C         -0.42848        4.37640       -3.30765
O         -0.53179        4.23738       -1.90221
H          1.36504        5.00184       -1.59455
H          0.16584        5.51535       -0.35341
H         -0.90702        7.02793       -1.85150
H          0.77491        7.24142       -2.40313
H         -1.16917        3.79776       -3.87440
H          0.57598        4.00846       -3.62555
H         -1.58677        6.15479       -3.74959
H          0.02698        6.16307       -4.51684
C         -0.84474        4.32978        7.38231
C          0.66276        4.59314        7.41231
C          1.15771        3.51286        8.33403
C         -0.08794        2.63346        8.45366
O         -0.94544        2.95149        7.34803
H         -1.35722        4.74356        8.27578
H         -1.41510        4.72652        6.53924
H          1.09676        4.36257        6.42727
H          0.97852        5.62630        7.65201
H          0.12503        1.55728        8.63062
H         -0.62896        2.91077        9.39115
H          1.45795        3.89595        9.32960
H          2.00861        2.96882        7.85337
C          0.69559        0.89329        4.61838
C          0.82256        0.54361        6.11323
C         -0.14986       -0.51791        6.61790
C         -1.56478       -0.14123        6.20328
C         -1.66545        0.07925        4.67117
N         -0.76758        1.25810        4.22648
C          1.69110        2.06335        4.42193
C          1.31774       -0.29961        3.85196
C         -1.48772       -1.32468        3.98983
C         -3.09836        0.39916        4.34300
H          1.26306       -1.26848        4.37203
H          0.82900       -0.38839        2.89201
H          2.42652       -0.23156        3.76990
H          2.69207        1.78810        4.83844
H          1.90604        2.34703        3.40427
H          1.36986        2.94762        4.95744
H         -3.27439        1.33282        4.79523
H         -3.29372        0.51074        3.27207
H         -3.80024       -0.36828        4.74941
H         -2.26752       -2.03086        4.34920
H         -1.62952       -1.27541        2.92118
H         -0.59779       -1.92090        4.19552
H         -2.25124       -0.95281        6.53898
H          0.12425       -1.51792        6.23083
H          1.85771        0.25352        6.40569
H          0.62208        1.46486        6.58577
H         -0.09196       -0.60092        7.72441
H         -1.86635        0.78079        6.72769
Li        -1.72665        2.84535       -0.92662
C         -0.09121        5.96840        4.71584
C         -0.74594        6.86906        3.67931
C         -1.33882        5.87855        2.73280
C         -0.47083        4.65854        2.95579
O         -0.27166        4.59147        4.35146
H          1.00345        6.16914        4.73106
H         -0.45513        6.28338        5.70267
H         -1.53750        7.53571        4.09515
H          0.04569        7.48112        3.19644
H         -0.94189        3.74346        2.54564
H          0.52085        4.78951        2.46066
H         -2.34276        5.62629        3.11995
H         -1.42819        6.25184        1.68950
C         -4.07593        3.02980        6.45066
C         -5.31500        2.37128        5.84125
C         -5.32382        2.90644        4.42262
C         -4.14142        3.86710        4.37929
O         -3.24325        3.49409        5.39427
H         -4.39689        3.92244        7.02785
H         -3.56114        2.33948        7.15147
H         -5.19679        1.26361        5.79667
H         -6.23608        2.54889        6.43299
H         -3.66627        3.84859        3.38738
H         -4.49378        4.89397        4.61641
H         -5.11595        2.06279        3.74558
H         -6.28706        3.34627        4.08395
C         -4.64043        2.90313       -2.43522
C         -6.07106        3.55174       -2.50766
C         -6.03113        5.05070       -2.30415
C         -5.54218        5.26565       -0.88871
C         -4.12371        4.68366       -0.68344
N         -3.88748        3.29936       -1.19945
C         -4.91407        1.40722       -2.37349
C         -3.89985        3.21096       -3.74587
C         -3.11935        5.61373       -1.33388
C         -3.87717        4.66967        0.83201
H         -3.72213        4.27980       -3.95435
H         -2.94945        2.64661       -3.79028
H         -4.50336        2.86392       -4.62527
H         -5.51534        1.07926       -3.27211
H         -3.97949        0.77139       -2.42819
H         -5.46200        1.12020       -1.46790
H         -4.62419        4.00451        1.31660
H         -2.86934        4.27179        1.05305
H         -3.96851        5.69297        1.26922
H         -3.38745        6.27530       -2.17965
H         -2.14730        5.50228       -0.85167
H         -2.90273        5.13602       -2.26511
H         -5.56002        6.35460       -0.63485
H         -5.39273        5.56484       -3.06055
H         -6.55301        3.32620       -3.47770
H         -6.72801        3.12519       -1.71341
H         -7.05563        5.47617       -2.39639
H         -6.26952        4.77293       -0.20590
Li        -1.29041        3.05398        5.31873

-H 0
6-31g(d,p)
****
-Li 0
6-31g(d,p)
****
-C 0
6-31g(d,p)
****
-N 0
6-31+g(d,p)
****
-O 0
6-31+g(d,p)
****


