%chk=speciation108.chk
%nprocshared=16
%mem=32GB
#p opt PM7/gen scf=xqc 

 speciation study

0 1
C         -0.89946       -1.50254        0.84140
C         -2.35964       -1.66391        0.26062
C         -3.28064       -0.50077        0.68453
C         -2.70119        0.81749        0.20398
C         -1.22316        1.02892        0.61851
N         -0.34955       -0.18031        0.32621
C         -1.00004       -1.64911        2.38956
C          0.08142       -2.69170        0.54571
C         -1.16367        1.44013        2.13147
C         -0.74683        2.21026       -0.25520
H          0.48246       -2.84141       -0.43816
H          1.00389       -2.60083        1.15665
H         -0.39183       -3.66436        0.80417
H         -1.35069       -2.68170        2.62965
H         -0.01748       -1.49984        2.88084
H         -1.74220       -1.05109        2.90630
H         -1.46196        2.57054       -1.02218
H         -0.44172        3.10988        0.32211
H          0.04303        1.80101       -0.89172
H         -0.18274        1.24959        2.61068
H         -1.43004        2.50561        2.27698
H         -1.90647        0.93166        2.75368
H         -2.80094        0.79810       -0.89523
H         -4.28217       -0.61247        0.21467
H         -2.81331       -2.62720        0.56412
H         -2.42176       -1.63190       -0.83392
H         -3.43890       -0.47753        1.77313
H         -3.31711        1.68187        0.54563
Li         1.30953        0.00337       -1.20202
C          3.53677        2.46454       -0.59768
C          2.33019        3.03017        0.06821
C          2.04112        2.19804        1.36980
C          2.99534        0.99994        1.78686
C          3.79592        0.31436        0.60243
N          3.35532        0.95061       -0.63571
C          4.70112        3.15136        0.21387
C          3.78072        2.92122       -2.04103
C          5.35069        0.32546        0.85867
C          3.48847       -1.18217        0.37441
H          4.76505        2.51281       -2.36970
H          3.01422        2.52536       -2.72603
H          3.81953        4.02811       -2.13069
H          4.70766        2.97257        1.31099
H          4.66974        4.25810        0.06291
H          4.54049        3.06351        1.31139
H          3.68124       -1.81181        1.26298
H          2.46876       -1.35247        0.00237
H          4.14128       -1.55561       -0.45500
H          5.55622       -0.06391        1.87854
H          5.90183       -0.29910        0.12818
H          5.90463        1.26511        0.81723
H          2.40789        0.24860        2.36260
H          1.67666        2.82600        2.20956
H          2.37095        4.12443        0.26267
H          1.57174        2.99283       -0.70312
H          1.17313        1.66542        1.10160
H          3.71123        1.38578        2.53639
Li         1.51741        0.35858       -0.11718
C         -0.09095        0.28403       -3.96080
C         -0.40133       -0.18018       -5.41174
C         -0.90541       -1.62358       -5.46935
C          0.15918       -2.52982       -4.84110
C          0.46632       -2.11436       -3.38460
N          0.82543       -0.66003       -3.24977
C          0.61350        1.64712       -4.03483
C         -1.39647        0.50390       -3.18289
C         -0.74357       -2.46048       -2.53326
C          1.66582       -2.95196       -2.89002
H         -2.14714       -0.28846       -3.25074
H         -1.11566        0.57728       -2.14045
H         -1.92917        1.42182       -3.50957
H         -0.03563        2.39903       -4.53561
H          0.84630        2.02005       -3.01971
H          1.55775        1.56883       -4.61306
H          2.54399       -2.81293       -3.54959
H          1.99317       -2.66057       -1.87838
H          1.40950       -4.03693       -2.87904
H         -0.79878       -3.53595       -2.25609
H         -0.62691       -1.78571       -1.70033
H         -1.73306       -2.25464       -2.95093
H         -0.17959       -3.59173       -4.87347
H         -1.89079       -1.71793       -4.97266
H         -1.15057        0.49476       -5.88152
H          0.52904       -0.13918       -6.01586
H         -1.07342       -1.92976       -6.52190
H          1.08341       -2.44708       -5.44934
Li         2.51477       -0.53925       -4.21627

-H 0
6-31g(d,p)
****
-Li 0
6-31g(d,p)
****
-C 0
6-31g(d,p)
****
-N 0
6-31+g(d,p)
****
-O 0
6-31+g(d,p)
****


