%chk=speciation75.chk
%nprocshared=16
%mem=32GB
#p opt PM7/gen scf=xqc 

 speciation study

0 1
C         -0.90446       -1.45824        0.85465
C         -2.35610       -1.55813        0.21084
C         -3.26851       -0.37709        0.61566
C         -2.66409        0.94381        0.20382
C         -1.20308        1.08583        0.65946
N         -0.33642       -0.12995        0.39623
C         -1.02248       -1.65282        2.38825
C          0.09567       -2.66200        0.57407
C         -1.16293        1.44771        2.18053
C         -0.70307        2.25032       -0.21379
H          0.61690       -2.81296       -0.35293
H          0.99883       -2.61440        1.22326
H         -0.40202       -3.64418        0.75460
H         -1.37232       -2.69386        2.59079
H         -0.02712       -1.53490        2.87063
H         -1.74923       -1.05059        2.90697
H         -1.28457        2.55364       -1.10612
H         -0.45034        3.17578        0.34733
H          0.07730        1.77066       -0.79355
H         -0.20526        1.17685        2.67704
H         -1.38108        2.51557        2.36421
H         -1.94407        0.93587        2.75372
H         -2.76618        0.99522       -0.89289
H         -4.24424       -0.43516        0.08775
H         -2.85096       -2.51277        0.46198
H         -2.36897       -1.48635       -0.88241
H         -3.45626       -0.37219        1.69708
H         -3.24548        1.82599        0.56323
Li         1.35863        0.05368       -1.05400
C          3.99132        0.57963       -6.23810
C          3.23679       -0.06335       -7.39109
C          3.48556       -1.53961       -7.19172
C          4.38263       -1.58168       -5.96662
O          4.15867       -0.39763       -5.23257
H          5.00573        0.88049       -6.58504
H          3.48560        1.49574       -5.86897
H          2.15115        0.11335       -7.26438
H          3.53321        0.34258       -8.38075
H          4.21789       -2.49829       -5.36194
H          5.44933       -1.58069       -6.28806
H          2.51241       -2.00691       -6.93921
H          3.91268       -2.07639       -8.06537
C          3.52836        2.50453       -0.51899
C          2.26165        3.01726        0.03217
C          1.97860        2.22962        1.37621
C          2.91525        1.01105        1.82099
C          3.78562        0.33439        0.65262
N          3.37784        1.00420       -0.55642
C          4.60089        3.23716        0.37635
C          3.83361        2.89915       -1.96802
C          5.33204        0.38986        0.92822
C          3.53761       -1.15367        0.26284
H          4.82779        2.46684       -2.23195
H          3.09965        2.43911       -2.66454
H          3.86177        3.99442       -2.12446
H          4.71885        2.92131        1.43080
H          4.42669        4.33999        0.33109
H          4.37598        3.07618        1.44766
H          3.58237       -1.90177        1.06919
H          2.62681       -1.27489       -0.33549
H          4.30974       -1.46517       -0.49304
H          5.55408        0.12578        1.98245
H          5.91981       -0.28441        0.27425
H          5.85733        1.31972        0.70131
H          2.33448        0.27479        2.42160
H          1.56919        2.88719        2.17134
H          2.17772        4.11958        0.14008
H          1.61031        2.87874       -0.82123
H          1.11972        1.68995        1.16056
H          3.59681        1.41085        2.59588
Li         1.53808        0.38645       -0.03485
C         -0.01541        0.24467       -3.77534
C         -0.34076       -0.23495       -5.22511
C         -0.83147       -1.67306       -5.29653
C          0.24706       -2.55274       -4.66349
C          0.55152       -2.14123       -3.20125
N          0.92675       -0.67923       -3.03607
C          0.62657        1.63674       -3.91013
C         -1.33375        0.45137       -3.02781
C         -0.69456       -2.49164       -2.40884
C          1.72118       -3.03427       -2.72700
H         -2.08810       -0.33477       -3.12845
H         -1.05813        0.51039       -1.98921
H         -1.87469        1.36388       -3.36046
H         -0.07925        2.33510       -4.42067
H          0.87160        2.07086       -2.92795
H          1.54318        1.59295       -4.52729
H          2.61216       -2.89461       -3.36873
H          2.04396       -2.83302       -1.70485
H          1.43005       -4.10937       -2.76245
H         -0.75574       -3.55909       -2.11301
H         -0.62994       -1.77532       -1.62240
H         -1.67715       -2.30475       -2.84953
H         -0.08528       -3.61704       -4.70064
H         -1.82543       -1.77625       -4.82111
H         -1.10471        0.42535       -5.69552
H          0.57184       -0.18750       -5.83684
H         -0.99808       -1.98302       -6.34914
H          1.16566       -2.46943       -5.26786
Li         2.57276       -0.53308       -4.14063

-H 0
6-31g(d,p)
****
-Li 0
6-31g(d,p)
****
-C 0
6-31g(d,p)
****
-N 0
6-31+g(d,p)
****
-O 0
6-31+g(d,p)
****


