%chk=speciation19.chk
%nprocshared=16
%mem=32GB
#p opt PM7/gen scf=xqc 

 speciation study

0 1
C          0.66555        1.35588       -0.23891
C          1.47984        0.09708        0.13745
C          0.81137       -1.19185       -0.37414
C         -0.63097       -1.27932        0.15201
C         -1.45468       -0.02392       -0.23396
N         -0.74200        1.19900        0.24700
C          1.23539        2.59411        0.45439
C          0.82299        1.66496       -1.75562
C         -1.79005       -0.02267       -1.75474
C         -2.82515       -0.06447        0.45203
H          0.69860        0.81929       -2.43371
H          0.16097        2.50005       -2.06326
H          1.87366        1.96129       -1.96956
H          2.31706        2.73375        0.22378
H          0.68166        3.50578        0.14544
H          1.10507        2.48241        1.52596
H         -2.70060       -0.12232        1.53363
H         -3.41301        0.84762        0.20559
H         -3.41003       -0.95715        0.13744
H         -2.49883       -0.84563       -1.99183
H         -2.26152        0.93593       -2.05929
H         -0.96320       -0.25989       -2.42610
H         -1.12488       -2.20815       -0.21110
H          0.82609       -1.22860       -1.47989
H          2.52661        0.16506       -0.23442
H          1.52534        0.02170        1.23061
H          1.38421       -2.07441       -0.01330
H         -0.56268       -1.34093        1.25482
Li        -0.75479        1.22855        2.23674
C          0.58687        1.20408        4.88656
C          0.48007        1.17540        6.43236
C         -0.44076        0.06593        6.92086
C         -1.82168        0.32454        6.33430
C         -1.81426        0.33126        4.78302
N         -0.76758        1.25810        4.22648
C          1.36732        2.48190        4.53982
C          1.44418        0.01017        4.39671
C         -1.67072       -1.10904        4.23912
C         -3.19096        0.86184        4.33986
H          1.11943       -0.97643        4.74475
H          1.47562       -0.00847        3.30294
H          2.48798        0.09947        4.76696
H          2.35194        2.49865        5.05602
H          1.59299        2.53998        3.47536
H          0.79840        3.38961        4.83246
H         -3.37245        1.87766        4.74932
H         -3.26821        0.94497        3.24584
H         -4.00197        0.19007        4.69931
H         -2.53195       -1.72974        4.56298
H         -1.64427       -1.11413        3.14256
H         -0.79164       -1.65050        4.59906
H         -2.54192       -0.43203        6.71554
H         -0.05858       -0.93716        6.64503
H          1.48910        1.05870        6.88822
H          0.06285        2.14270        6.79282
H         -0.49731        0.10285        8.02908
H         -2.15357        1.31813        6.71035
Li        -1.75037        2.76179       -0.34297

-H 0
6-31g(d,p)
****
-Li 0
6-31g(d,p)
****
-C 0
6-31g(d,p)
****
-N 0
6-31+g(d,p)
****
-O 0
6-31+g(d,p)
****


