%chk=speciation57.chk
%nprocshared=16
%mem=32GB
#p opt PM7/gen scf=xqc 

 speciation study

0 1
C          0.90816        1.09834       -1.30470
C          1.82894       -0.19665       -1.55258
C          1.07630       -1.47209       -1.90493
C         -0.21118       -1.57041       -1.12178
C         -1.08548       -0.32280       -1.20895
N         -0.46731        0.94238       -0.59631
C          1.64301        2.17497       -0.53281
C          0.81361        1.61968       -2.73298
C         -1.58568       -0.14147       -2.70070
C         -2.26781       -0.71639       -0.40411
H          0.61982        0.90406       -3.52847
H          0.05317        2.36549       -2.74270
H          1.82323        1.94384       -3.06918
H          2.65567        2.40351       -0.92558
H          0.99515        3.06189       -0.48971
H          1.74851        1.87555        0.48867
H         -2.04598       -0.87039        0.66978
H         -2.78572        0.13553       -0.54015
H         -2.87245       -1.54597       -0.83159
H         -2.35223       -0.89656       -2.97263
H         -1.99075        0.87316       -2.89074
H         -0.86287       -0.37086       -3.48843
H         -0.79163       -2.41684       -1.56898
H          0.85535       -1.48399       -2.98489
H          2.58532       -0.04575       -2.35095
H          2.60761       -0.40219       -0.84857
H          1.69796       -2.37769       -1.72431
H         -0.00490       -1.76507       -0.05164
Li        -0.69635        1.28923        2.08390
C          1.33287        3.99603        2.60133
C          2.31514        3.98563        3.80367
C          1.44935        3.65091        4.98530
C          0.01304        3.68797        4.32342
O          0.14900        3.24072        2.96814
H          1.02592        5.04568        2.41241
H          1.81191        3.67412        1.66955
H          2.98419        3.17073        3.57743
H          3.31461        4.45654        4.05722
H         -0.71715        3.18945        4.97797
H         -0.30529        4.73171        4.34686
H          1.77454        2.67215        5.33012
H          1.57708        4.32011        5.85416
C         -4.15998        0.69331        3.09082
C         -4.76295        1.94927        3.71312
C         -3.75581        2.28247        4.77484
C         -2.85292        1.10184        4.69923
O         -2.72974        0.82027        3.29963
H         -4.55649       -0.21197        3.63243
H         -4.56661        0.38683        2.11391
H         -4.75665        2.80345        3.04400
H         -5.79982        1.76889        4.07376
H         -2.02241        1.35191        5.30972
H         -3.27566        0.20479        5.26610
H         -3.10619        3.10421        4.39635
H         -4.17715        2.55644        5.76013
C          0.19806       -0.67220        4.34726
C          1.14162       -1.69411        5.11910
C          2.60661       -1.38151        5.01499
C          2.83987       -1.42033        3.54166
C          2.04353       -0.32437        2.74578
N          0.53950       -0.14482        2.92408
C         -1.12285       -1.49304        4.28369
C          0.17054        0.47826        5.29697
C          2.76395        0.94277        3.00674
C          2.23675       -0.75351        1.36749
H          1.16374        0.76689        5.64260
H         -0.18070        1.27752        4.68849
H         -0.38952        0.23935        6.23011
H         -1.56730       -1.63802        5.29257
H         -1.85214       -1.14759        3.56289
H         -0.94020       -2.51795        3.89441
H          1.87541       -1.77680        1.18389
H          1.55323       -0.11669        0.83342
H          3.31556       -0.70364        1.08519
H          3.84706        0.90796        2.75318
H          2.28692        1.68207        2.39891
H          2.68814        1.18746        4.07157
H          3.93500       -1.34022        3.34314
H          2.91519       -0.42798        5.48211
H          0.86046       -1.78911        6.19440
H          1.03118       -2.71684        4.74346
H          3.20371       -2.17807        5.51294
H          2.55368       -2.42836        3.20645
Li        -1.74267        2.78898       -1.34753
C         -0.15140        4.66441       -3.40732
C          1.31710        4.92972       -3.07270
C          1.25705        5.51229       -1.67980
C         -0.23054        5.40192       -1.31949
O         -0.81509        4.43142       -2.16438
H         -0.58814        5.57384       -3.87163
H         -0.27979        3.86221       -4.16750
H          1.85790        3.98217       -2.96673
H          1.90024        5.49486       -3.82858
H         -0.39217        5.20700       -0.24148
H         -0.71677        6.37375       -1.56711
H          1.89811        4.89671       -1.01355
H          1.63828        6.54878       -1.59802
C          0.92419       -4.71378        2.56189
C          2.23811       -4.88065        1.78389
C          1.82146       -4.60137        0.36560
C          0.32154       -4.42313        0.50600
O          0.06011       -3.87903        1.79681
H          0.43539       -5.71392        2.64956
H          1.08837       -4.41079        3.59928
H          2.99454       -4.11743        2.05012
H          2.70615       -5.87387        1.94668
H         -0.13771       -3.92169       -0.33209
H         -0.16113       -5.42802        0.45009
H          2.27737       -3.63657        0.06464
H          2.12141       -5.36806       -0.38079
C         -4.55631        4.58508       -0.62191
C         -6.08843        4.52664       -0.30805
C         -6.39417        3.55523        0.82510
C         -5.93873        2.20475        0.35633
C         -4.48803        2.12539       -0.29536
N         -4.02527        3.26091       -1.09393
C         -4.34814        5.54832       -1.77577
C         -3.83056        5.18174        0.62248
C         -3.29657        2.05135        0.70662
C         -4.73933        0.93903       -1.29350
H         -3.99271        4.65528        1.57460
H         -2.74221        5.27447        0.45806
H         -4.25155        6.18692        0.83960
H         -4.75262        6.54990       -1.52365
H         -3.26412        5.62809       -1.99238
H         -4.86824        5.16013       -2.67664
H         -5.62584        1.09025       -1.94446
H         -3.96268        0.80684       -2.05360
H         -4.93962       -0.00852       -0.73203
H         -3.06600        1.10674        1.11064
H         -2.32990        2.24435        0.25773
H         -3.28952        2.77306        1.51478
H         -6.13082        1.41244        1.10979
H         -5.94482        3.87461        1.76788
H         -6.47359        5.52183       -0.00790
H         -6.64920        4.20235       -1.21184
H         -7.48865        3.50684        1.03195
H         -6.71754        1.99489       -0.41220
Li         0.29675       -2.03568        2.35328

-H 0
6-31g(d,p)
****
-Li 0
6-31g(d,p)
****
-C 0
6-31g(d,p)
****
-N 0
6-31+g(d,p)
****
-O 0
6-31+g(d,p)
****


